12

C      1.422176    -0.179234     0.300869
C      0.792565     0.226296     1.496574
C     -0.668101     0.512399     1.455563
O      0.675802    -1.960722     1.002021
O      1.396392     0.175254     2.660970
O     -1.318132     0.680835     0.461324
H      2.350508    -0.070850     2.521204
H      0.914898    -0.130720    -0.650561
H      2.476546    -0.440830     0.303528
H     -1.126882     0.561560     2.454078
H      0.464719    -2.319770     0.213525
H      1.414707     1.173382     0.640707
