12

C      1.518046    -1.166903     1.155502
C     -0.590333     1.875828    -0.787553
C      0.252584     0.691731    -0.382141
O      0.744100     0.720740     0.823147
O      2.436563    -0.693051     1.859884
O      0.398543    -0.227475    -1.177317
H      1.705063     0.331069     1.470790
H      1.782017    -1.540120     0.151279
H      0.584426    -1.602122     1.555399
H     -1.647938     1.632049    -0.592401
H     -0.315491     2.765698    -0.200857
H     -0.469081     2.043054    -1.867634
