12

C     -0.249663    -0.181475     1.473426
C      1.477791     1.614558     0.099376
C      0.418842     0.766228     0.037876
O      0.098099    -1.500814     1.260047
O      1.415090    -1.683724     1.144984
O     -0.768585     0.760750    -0.149477
H      1.476849    -2.179347     0.300571
H     -1.317993    -0.155703     1.721017
H      0.381796     0.315707     2.214595
H      1.079769     0.386741    -0.911001
H      1.366840     2.663660    -0.186974
H      2.436666     1.234218     0.405261
