12

C     -0.256177    -1.188080     1.092626
C      1.876168     1.438962     0.117308
C      0.955150     1.968713     1.042933
O      0.741399    -0.917168     0.174561
O      0.482115     0.149112    -0.609156
O      0.350733     2.071855     2.030465
H      0.062816    -2.101401     1.632484
H     -1.220053    -1.380806     0.630362
H     -0.337803    -0.342643     1.807303
H      0.491278     1.162347    -0.095259
H      2.054833     1.982154    -0.793875
H      2.640641     0.754756     0.459645
