12

C     -0.502341    -0.571946     0.460240
C      1.031209     1.053651    -0.431966
C      0.347654     1.842428     0.514495
O      0.572537    -1.363078     0.754248
O      1.192639    -1.008986     1.885038
O     -0.481592     1.363599     1.335010
H      0.794591    -1.576311     2.547945
H     -1.307869    -0.585360     1.189093
H     -0.801589    -0.661959    -0.579033
H      0.501911     2.932860     0.575900
H      1.634162     0.245271    -0.112111
H      1.409886     1.535033    -1.327059
