12

C     -0.348694     1.956685     0.890617
C     -1.376490     2.385953     0.047857
C     -2.232519     0.212497     1.989769
O     -2.379811     1.388438     2.113024
O      0.026630     0.692308     1.076701
O     -2.224601    -0.794465     2.593744
H      0.792737     0.501437     1.578947
H     -2.193017     0.922869    -0.086666
H      0.426758     2.640749     1.203431
H     -2.280255     0.231496     0.333854
H     -1.011795     2.707197    -0.922800
H     -2.236444     2.900639     0.394221
