12

C     -0.571648     0.391178     0.274336
C      0.553276    -0.517618    -0.028418
C      1.627050     0.250294     1.110040
O     -0.653483     0.793412     1.514744
O      2.004792     1.506114     0.651194
O      0.840713     0.304757     2.193415
H      1.402485     2.127129     1.015895
H     -1.027962    -0.657358    -0.031136
H     -0.915036     1.068074    -0.525293
H      2.511859    -0.399202     1.173699
H      0.540974    -1.491010     0.436698
H      0.855079    -0.556471    -1.078174
