12

C      0.150464    -0.195680    -0.600668
C     -0.129782     0.105941     0.803712
C     -0.142345     1.716716     1.299323
O      1.022307     0.466471     1.372379
O      2.167140    -0.506869     0.606964
O     -0.786331     2.372013     0.619288
H      2.204569    -1.068521     1.394906
H      1.593925    -0.147098    -0.391221
H      0.130844    -1.243520    -0.913101
H      0.117437     2.049964     2.291020
H     -0.248813     0.487671    -1.343697
H     -0.872617    -0.465787     1.377395
