12

C      1.438472     1.412452    -2.462176
C      1.612297     0.369832    -0.593518
C      0.327892    -0.217638    -0.761852
O      0.858650     2.532344    -2.995553
O      0.497057     3.315950    -1.795276
O     -0.772242    -0.457474    -0.505732
H     -0.280043     2.736026    -1.555535
H      1.482961     0.561662    -3.107727
H      2.107855     1.959982    -1.882830
H      0.952988     0.053481    -1.858710
H      2.578847    -0.127327    -0.654774
H      1.584366     1.200410     0.137982
