12

C      1.002500    -0.804902     0.030887
C      1.075399     0.382577     0.946320
C      0.014878     0.893650     1.668455
O      2.235677    -1.481232    -0.064592
O      0.782800    -0.090970     2.757872
O     -1.196692     0.841685     1.838087
H      0.106961    -0.738963     2.874857
H      0.171215    -1.469012     0.340225
H      0.793792    -0.439850    -0.983678
H     -0.690305     1.936086     1.653780
H      2.470998    -1.711575     0.844934
H      2.027775     0.910006     0.952753
