12

C     -0.705584     0.231644     0.688669
C      1.626959     0.846544     1.532013
C      0.792010     1.354817     0.396991
O     -0.140092    -0.589583     1.587644
O      0.860138    -0.012549     2.328839
O      0.482402     0.930092    -0.739136
H      0.156350     2.545164     0.852936
H     -1.200566    -0.317694    -0.109910
H     -1.331552     1.007965     1.152485
H      0.715638     2.789663     0.216008
H      2.462161     0.296408     1.069606
H      2.045137     1.622928     2.180450
