12

C     -1.050470     0.123010     0.488094
C      0.926529    -0.337675    -0.029681
C      1.411980     0.560059     1.055814
O     -0.500120    -0.598858     1.395099
O      2.320221     1.545571     0.617555
O      0.201606     1.166232     1.413115
H      3.172026     1.135676     0.504382
H     -1.397052    -0.390427    -0.418296
H     -1.834609     0.803827     0.815064
H      1.830491     0.000183     1.907645
H      1.259127    -1.375928    -0.042635
H      0.828169     0.187730    -0.999056
