12

C     -1.033724    -0.053195     0.332194
C      1.466898    -0.232433     0.440265
C      1.361424     0.753476     1.566669
O      0.388067     1.438572    -0.163237
O      0.456925     1.703066     1.167162
O      1.956714     0.671093     2.628526
H      1.652806     1.169279    -0.086201
H     -1.100766    -0.642599    -0.574231
H     -1.729740     0.757436     0.398514
H     -1.012174    -0.610154     1.268693
H      1.639277    -1.236155     0.838624
H      1.567893    -0.372287    -0.608479
