12

C     -1.064901    -0.168030     0.459142
C      0.850915     0.032292     0.020503
C      1.309546     0.675116     1.268263
O     -1.018713    -0.202063     1.686378
O      2.470739     1.181209     0.302187
O      0.424421     1.421170     1.782608
H      3.210243     0.572678     0.344326
H     -1.183809    -1.103603    -0.098847
H     -1.535957     0.710161     0.006667
H      1.842049     0.037132     1.985285
H      1.204822    -0.986662    -0.199097
H      0.658548     0.649999    -0.850314
