12

C     -1.226800     1.606016    -0.265230
C     -0.402334     1.987494     0.785590
C     -2.582015     0.257189     1.597161
O     -2.949134     0.726694     0.475043
O      0.633029     1.102511     1.066613
O     -2.583936    -0.696136     2.254485
H      1.011275     1.210410     1.920960
H     -1.722617     2.352684    -0.867059
H     -1.054025     0.618428    -0.721942
H     -2.139566     1.529207     2.205926
H     -1.719671     2.017755     1.719158
H     -0.301204     3.033749     1.042096
