12

C      1.060715     0.906776     0.027801
C     -0.410544     0.909516     1.807336
C     -0.479114     1.337396     3.235226
O      0.889066     1.238797     1.312294
O      0.494643    -0.150098    -0.507856
O     -1.521616     1.417106     3.831500
H      0.106759     1.053825    -1.144674
H      0.050030     2.014759    -0.717660
H      2.034930     1.278758    -0.336671
H      0.483212     1.575598     3.710359
H     -1.175297     1.424172     1.196703
H     -0.581085    -0.173707     1.702240
