12

C      0.646904     1.548706     0.126642
C     -0.460303     1.918270     1.111556
C     -1.125767     0.759343     1.804421
O      1.521078     0.616336     0.677358
O     -0.409811     3.039584     1.816445
O     -0.919331    -0.406443     1.602454
H     -1.485052     2.848115     0.802390
H      0.229242     1.161122    -0.815162
H      1.244826     2.443408    -0.074588
H     -1.851741     1.073417     2.586582
H      1.003027    -0.143853     1.038786
H     -1.722471     2.435595     0.178317
