12

C     -0.768004    -0.593755     1.008013
C      1.038664     1.583413     0.684785
C      1.611597     0.468235     0.045929
O     -0.599894    -0.173953    -0.350044
O      0.222056    -0.079445     1.806170
O      0.749339    -0.258239    -0.733889
H      1.393932    -0.254576     1.204893
H     -1.734930    -0.228957     1.378784
H     -0.720730    -1.695427     0.973589
H      2.659514     0.458252    -0.262150
H      1.663793     2.248084     1.284584
H      0.035360     1.883468     0.430833
