12

C      0.269714    -1.122902     0.304356
C      0.548002     2.243836    -0.562277
C      0.620013     1.102712     0.128784
O      1.014204    -1.228002     1.417737
O     -0.356768    -0.987377     2.542653
O     -0.295558     0.114183    -0.013949
H     -0.145682    -0.120069     2.789294
H     -0.349154    -1.617502     1.492097
H      0.726149    -1.593920    -0.576252
H      1.328333     0.943420     0.938329
H     -0.311923     2.496972    -1.146546
H      1.343971     2.973649    -0.502326
