12

C      0.925118    -0.018694    -0.624631
C     -0.309872     0.344416    -0.163388
C     -0.133580     1.214044     1.071550
O     -0.653599    -0.040467     1.651943
O      0.297134    -0.734822     2.137124
O      1.081656     1.480121     1.238227
H     -0.126465    -1.590843     2.412387
H      1.604046     0.796075    -0.860428
H      1.048641    -0.878980    -1.284712
H     -0.860736     1.980091     1.315023
H      1.444763     0.035406     0.833070
H     -1.254805    -0.008447    -0.556163
