12

C     -0.670743     0.662351     0.556695
C      0.345627     0.497946    -0.455416
C      1.716192     0.942937    -0.097899
O     -1.786606    -0.325995    -0.188387
O      2.264896     1.818385    -1.010118
O      2.325532     0.554139     0.892135
H      3.135204     2.069726    -0.643339
H     -0.497336     0.157870     1.509256
H     -1.211710     1.605348     0.702763
H     -2.104338    -1.080042     0.305687
H     -0.816852    -0.572790    -0.674559
H      0.109037     0.692026    -1.478518
