12

C      1.399666    -0.472099     0.889430
C      0.699457     0.655870     0.269484
C     -0.041490     1.579377     1.177355
O     -0.085704    -1.376781     0.514569
O      1.739137    -0.439835     2.180193
O      0.324267     2.687099     1.465446
H      2.641662    -0.789309     2.363212
H      0.098237    -2.265600     0.210169
H      2.104878    -1.024316     0.257678
H     -1.023132     1.215285     1.582654
H     -0.243893    -0.444874    -0.124529
H      1.163716     1.083184    -0.603661
