12

C      0.029771    -0.266588    -1.178512
C      0.287999     0.034632     1.127650
C     -0.095538     0.952684     2.156632
O     -0.597989    -0.100719     0.096253
O      1.070011    -1.035923     1.341194
O      1.162076     1.211588     2.115711
H      1.939568    -0.751479     1.651325
H     -0.775172    -0.388898    -1.898692
H      0.666102    -1.174591    -1.187271
H      0.452539     2.006328     2.299007
H      0.652754     0.605161    -1.412756
H      1.341977     1.303006     0.829659
