12

C     -0.358097     1.567561     0.433209
C     -1.367891     2.408051     0.846588
C     -2.343908     0.841983     1.987025
O      0.418186     1.070728     1.395008
O     -3.352504     0.916482     1.339333
O     -1.998353     0.394376     2.987890
H     -2.308132     0.300661     0.004827
H     -1.525676     0.357743    -0.115969
H      0.081172     1.534936    -0.545412
H      1.017347     0.428595     1.235272
H     -1.040382     3.310572     1.334738
H     -2.259061     2.614008     0.310189
