12

C     -0.622498    -1.020223     1.332641
C      1.699095     2.193248    -0.602746
C      0.974460     1.747416     0.423654
O      0.286473    -0.049902     1.826604
O      0.009044    -1.937237     0.490419
O     -0.093286     1.314360     0.785140
H      0.707413    -2.296497     1.039467
H     -1.074734    -1.499554     2.226579
H     -1.432841    -0.591198     0.719894
H      1.074965     0.760620     1.277378
H      2.729508     2.499714    -0.450963
H      1.293300     2.236354    -1.596568
