12

C     -0.986129     0.544081    -0.151396
C      1.169864    -0.546003     0.455444
C      0.838235     0.275133     1.568253
O     -0.293305    -0.318683    -0.790096
O      1.481693     1.496960     1.636743
O     -0.753933     0.836100     1.167236
H      0.805068     2.066399     2.025901
H     -1.680877     0.074435     0.710265
H     -1.490613     1.353716    -0.687208
H      0.658177    -0.201668     2.540961
H      1.064326    -1.623695     0.532561
H      1.915394    -0.179875    -0.242064
