12

C     -0.663436     0.133444     0.406563
C      1.600109    -0.324779     0.140310
C      0.636259     0.777073     0.566862
O     -0.512768    -1.166843     0.049501
O      0.865586    -1.502349     0.106507
O      0.541259     0.659099     2.232604
H      0.787134     1.342203     2.799887
H     -0.597872     0.355406     1.827761
H     -1.510231     0.613496    -0.071699
H      0.855928     1.810843     0.353523
H      1.976412    -0.178924    -0.898304
H      2.439919    -0.436969     0.830784
