12

C     -0.011349     1.450622     0.101770
C     -0.258241     1.505774     1.479446
C     -0.480977     0.437397     2.118533
O      1.182821     1.483133     2.550008
O      1.688853     1.013758     3.581780
O     -0.251843    -0.551185     2.501503
H      2.430599     0.416191     3.507405
H     -1.852158     2.079280     0.051005
H      0.925567     1.893973    -0.225144
H     -2.227139     1.549294     0.485108
H     -0.389383     0.728687    -0.560750
H     -0.821451     2.396575     1.870439
