12

C      1.321220    -1.015807     0.910631
C      0.653577     0.926849    -0.241516
C     -0.197313     1.108896     0.867754
O      0.534642    -1.918058     1.447566
O      2.281359    -0.395384     1.545591
O     -0.197561     0.435192     1.933624
H      1.964318    -0.082811     2.388740
H     -0.033437    -1.544418     2.123518
H      1.530401    -1.229240    -0.130849
H     -0.892802     1.973349     0.831738
H      0.252671     0.621531    -1.202969
H      1.559826     1.527902    -0.291929
