12

C      0.230075     0.085431    -1.227660
C      0.435311     1.280052    -0.312107
C     -0.215154    -0.450957     0.942009
O      0.418609    -1.190955     0.140437
O     -0.424284    -0.954854     2.137202
O     -0.115770     0.938287     0.956823
H      0.290645    -1.495889     2.421638
H     -0.550583     0.155021    -1.975896
H      1.103033    -0.386610    -1.684557
H     -0.958096    -0.512548    -0.225673
H      1.520047     1.466448    -0.201122
H     -0.075532     2.172476    -0.679794
