12

C     -0.338462     1.169477    -0.152737
C      0.818537     0.211840    -0.454682
C      0.203731    -0.374288     1.367107
O     -1.297931     0.372778     0.574975
O      2.085427     0.562501    -0.159833
O      0.917054     0.012281     2.194362
H      2.056245     1.024057     0.720907
H     -0.835066     1.548753    -1.040763
H      0.003778     2.003323     0.477033
H      0.452649    -0.851330     0.180042
H     -1.504319     0.772459     1.502794
H      0.860857    -0.211951    -1.447505
