12

C      1.687724     0.061121     0.416206
C     -0.320521     1.604099     0.164541
C      0.383880     0.657021     0.893670
O      1.911143    -1.163042     1.100786
O      0.959818    -2.026415     0.688469
O     -0.095632     0.292300     2.092256
H      1.319879    -2.877699     0.956612
H      2.513466     0.768826     0.618687
H      1.638714    -0.111241    -0.669736
H     -0.926295     0.229276     1.350812
H     -0.252958     1.619509    -0.916799
H     -0.756617     2.475246     0.620598
