12

C     -0.047648     0.240552     1.595024
C      1.405434     1.451055    -0.107777
C      0.310197     0.491591     0.210808
O      0.098502    -1.119577     1.851647
O      1.258151    -1.650483     0.483890
O     -0.255158    -0.235170    -0.633180
H      0.796075    -2.310608     0.432366
H     -0.944262    -0.767671     1.706885
H      0.101498     0.946349     2.424910
H      1.419905     1.599811    -1.195532
H      1.314033     2.403013     0.442276
H      2.358775     0.991939     0.198381
