12

C      1.418252    -0.509918    -0.036697
C      1.152536     0.590385     0.967951
C     -0.081172     0.539532     1.666442
O      1.124113    -1.777841     0.471606
O      1.068746     0.476481     2.816866
O     -0.911359    -0.481875     1.560823
H      0.992303    -0.492258     3.008658
H      0.819068    -0.276064    -0.939025
H      2.467023    -0.502220    -0.346990
H     -1.187519     0.893513     1.956420
H      0.186998    -1.728186     0.805672
H      1.746410     1.496153     0.928173
