12

C     -1.220917     1.286286     1.648360
C      1.097704     1.495829     0.584515
C     -0.043145     2.225910     1.281488
O     -1.337104     0.114615     1.074362
O      0.775600     0.565512    -0.388350
O     -0.037523     3.415974     1.504956
H     -0.122483     0.285968    -0.341056
H     -2.166699     2.014786     0.789120
H     -1.637290     1.379882     2.654018
H     -2.029578     1.200307     0.541073
H      1.701231     2.287390     0.123823
H      1.690606     1.021239     1.382493
