12

C      2.043334     1.265488    -2.160561
C      1.545721     0.358244    -1.136991
C      0.195671    -0.114251    -1.082028
O      1.260365     2.757157    -1.343519
O      0.188924     2.841379    -2.079287
O     -0.828115     0.512664    -1.190635
H     -0.537731     2.162317    -1.829421
H      1.506707     1.321172    -3.100570
H      3.119253     1.417628    -2.225858
H      0.128010    -1.209951    -0.875247
H      1.792639     1.557843    -0.914238
H      1.974222     0.469808    -0.097443
