12

C      1.171283    -0.455028     0.118336
C      1.505239     0.311756     1.247083
C     -0.768472     0.149622     1.239569
O      0.054784    -1.235996     0.553797
O      1.289727     0.241864     2.533719
O     -1.430825     0.848815     0.550119
H      2.126338     0.440974     2.985440
H      0.851689     0.161258    -0.718606
H      2.007549    -1.100665    -0.212600
H     -0.957624    -0.238872     2.266754
H      0.556736    -1.832618     1.176329
H      2.388774     0.936490     1.119859
