12

C     -0.152915     0.041767     1.694922
C     -0.323063     0.812709     0.386560
C      0.388007     1.821486     0.045541
O      0.935436    -0.736199     1.482327
O      1.193354    -0.770859    -0.163528
O      1.312431     2.592527    -0.290315
H      2.115089    -0.995849    -0.041774
H     -1.074814    -0.528941     1.862824
H      0.018037     0.638268     2.589045
H      1.200108     0.303220    -1.050977
H      2.144293     2.333045     0.062867
H      0.095236    -0.457875    -0.349694
