12

C     -1.219730     0.463950     0.471978
C      2.101808     0.940769     1.731645
C      0.609265     1.014780     1.718168
O      0.075945     0.172601     0.760361
O     -2.180797     0.230604     1.282425
O     -0.055731     1.703246     2.468042
H     -1.735010     1.621936     1.135729
H     -1.029585     2.137788     0.824566
H     -1.361978     0.402162    -0.623774
H      2.390721     0.249928     2.539397
H      2.510284     1.938840     1.967765
H      2.491006     0.565196     0.778297
