12

C     -1.408865     0.242876     0.512009
C      1.433185     0.756138     0.905561
C      0.503025    -0.644159     0.412504
O     -1.369481    -0.084069     1.675921
O      0.099167    -1.259508     1.496621
O     -0.502817    -0.101233    -0.414934
H      2.170386     0.204513     1.484686
H     -0.320223     0.945179     1.091495
H     -2.374047     0.413915     0.075123
H      1.217983    -1.128345    -0.282521
H      1.786975     1.117932    -0.064796
H      1.307114     1.640363     1.527730
