12

C      0.199323     0.056085    -0.888978
C     -0.106077    -0.079392     0.587811
C     -0.060425     1.220855     1.276346
O      0.902885    -0.847997     1.293782
O      1.960978     0.632626     1.533938
O     -0.563367     2.276514     1.341713
H      2.075863     0.362331     2.518048
H      0.164902    -0.932350    -1.353274
H     -0.544813     0.693573    -1.378461
H      1.069456     0.259163     1.835896
H      1.190853     0.497640    -1.040800
H     -1.082777    -0.567650     0.790480
