12

C      1.345843     1.166120    -2.291328
C      0.600723     0.356766    -1.319186
C      1.331083    -0.756779    -0.759790
O      0.655703     2.553664    -1.702552
O      0.501623     3.648192    -1.740394
O      2.455115    -0.621735    -0.304198
H      1.114313     4.297627    -1.412059
H      1.141199     1.050427    -3.359852
H      2.391397     1.391107    -2.063787
H      0.826358    -1.756136    -0.752546
H      0.491183     1.802270    -0.798621
H     -0.465540     0.208074    -1.531387
