12

C      1.437944    -0.608804     0.565131
C      0.494095     0.390936     0.747367
C     -0.578385     0.688483    -0.252617
O      1.866828    -1.247334     1.553547
O      0.925721    -0.129952     3.010561
O     -0.044486     1.243774    -1.417724
H      1.285946    -0.961160     3.360872
H     -1.344722     1.334989     0.222935
H      1.883199    -0.870245    -0.404312
H     -1.084860    -0.236185    -0.571678
H      0.149578     2.155763    -1.228153
H      0.780540     1.122137     1.487871
