12

C      0.060018    -0.125121     1.498257
C      1.342572     1.440094    -0.192518
C      0.233926     0.577708     0.254749
O      0.237295    -1.469513     1.596816
O      1.472776    -1.863165     1.424106
O     -0.945077     0.484890    -0.285699
H      1.361991    -2.373488     0.614962
H     -1.184446    -0.006524     0.941567
H      0.364499     0.371724     2.435840
H      1.287735     1.586364    -1.279657
H      1.277790     2.411119     0.300048
H      2.306420     1.006713     0.101227
