12

C     -0.452251    -1.227252     0.654923
C      1.744093     1.014397     0.371710
C      1.145806     2.123887     1.088259
O      0.727218    -0.883955    -0.094749
O      1.905924    -0.200781     0.949664
O      0.014801     2.370284     0.785776
H     -0.348680    -0.946969     1.708519
H     -0.514897    -2.315066     0.579253
H     -1.311820    -0.689530     0.215849
H      1.725371     2.645929     1.849174
H      0.693353     0.381162    -0.261657
H      2.512183     1.325596    -0.357121
