12

C     -0.122800     0.438174     0.026187
C      0.048705     0.608131     1.501209
C      0.754235     1.931834     1.801274
O     -0.226027     1.464121    -0.791880
O      0.878097    -0.431915     1.974074
O      1.057070     2.210732     2.937364
H      1.265179    -0.103934     2.807402
H     -1.653580     1.241833     0.050351
H      0.207697    -0.481274    -0.455739
H      0.955169     2.606752     0.947295
H     -1.396791     1.724449    -0.609361
H     -0.920254     0.594597     2.041424
