12

C     -0.243954    -0.040323     0.805426
C     -0.954744     1.077023     1.126143
C     -0.619067     1.888211     2.228981
O      0.940196    -0.297426     1.397793
O      1.859342    -0.822628     0.583531
O     -0.877647     3.165967     2.171246
H      2.256171    -0.073298     0.097129
H     -0.186192     3.291706     1.259101
H     -0.637531    -0.826184     0.175705
H      0.197032     1.616534     2.907369
H      0.789130     3.056490     1.197808
H     -1.737536     1.384626     0.430569
