12

C      1.492059    -0.749182     1.018139
C     -0.244505     0.644291    -0.094256
C      0.249493     1.531321     0.829784
O      1.056822    -1.803653     0.340763
O      1.820623    -0.956309     2.273686
O      0.445894     1.192036     2.021102
H      1.639700    -0.202028     2.843072
H      0.928660    -2.532612     0.933999
H      2.084598    -0.043616     0.445432
H      0.526777     2.546405     0.481466
H     -0.997260    -0.060419     0.258260
H     -0.226160     0.841864    -1.169448
