12

C     -0.475942    -1.513999     0.678778
C      1.725868     1.095280     0.396985
C      1.325068     2.439417     0.880432
O      0.590412    -0.708083     0.150653
O      1.751711     0.097656     1.297169
O      1.587105     3.477116     0.286271
H     -0.447636    -1.538308     1.772014
H     -0.374497    -2.538669     0.269613
H     -1.427548    -1.076567     0.329713
H      0.771720     2.396552     1.837997
H      0.344271     0.392638     0.007613
H      2.470470     1.074771    -0.417739
