12

C      0.263657    -0.995608     1.309164
C      0.719470     1.086339    -0.323447
C     -0.390000     2.055852    -0.006798
O      1.295317     0.523080     0.807930
O      0.653647    -1.859811     0.402757
O     -1.476775     2.006323    -0.562233
H      1.365923    -0.730622     0.514408
H      0.539538    -1.075032     2.374143
H     -0.705823    -0.484936     1.172390
H     -0.128909     2.778898     0.794472
H      0.283355     0.315681    -0.990835
H      1.496999     1.624836    -0.886650
