12

C     -0.900174    -0.482108     0.379941
C      1.449004     0.883349     0.114004
C      0.143660     1.308421     0.515503
O      0.075199    -1.260591     0.472511
O      1.455344    -0.269747     1.514233
O     -0.822052     0.808773    -0.238087
H      1.409333    -0.998058     1.997339
H     -0.509458    -0.006165     1.550131
H     -1.835264    -0.834605    -0.009424
H      0.038254     2.335078     0.893213
H      1.602978     0.169285    -0.660646
H      2.284375     1.551568     0.283084
