12

C     -1.072857     0.063417    -0.091686
C      1.044392    -0.111593     0.147166
C      0.815736     0.662625     1.368617
O      0.135580    -0.127154    -0.737350
O      1.825294     1.488236     1.746183
O     -0.470232     0.903908     1.511729
H      1.450921     2.179332     2.335849
H     -1.765903    -0.753429    -0.117516
H     -1.545529     1.001550    -0.391991
H      0.434960    -0.209711     2.162069
H     -0.169023    -0.982671     1.042793
H      2.044661    -0.337510    -0.209363
