12

C      0.454657    -0.853126     0.414619
C      0.488624     1.936173    -0.470577
C      0.740903     0.855912     0.319666
O      0.953226    -1.187821     1.634595
O      0.484504    -0.464163     2.644011
O     -0.713246    -0.092592     0.355029
H     -0.395469    -0.062289     2.432221
H     -0.780434    -1.259449     0.513806
H      0.865652    -1.347226    -0.463893
H      1.552842     0.884994     1.032253
H     -0.470908     2.067495    -0.958600
H      1.211148     2.727193    -0.641129
