12

C      0.488811    -0.154906     1.589191
C      1.448630     1.800597    -0.271586
C      0.649009     0.709550     0.035816
O      0.800660    -1.456238     1.880000
O     -0.067770    -2.307186     1.345199
O      0.761792    -0.452083    -0.435245
H     -0.039782    -2.238699     0.383338
H     -0.572728     0.073408     1.761639
H      1.188280     0.457207     2.163293
H     -0.344587     1.194668    -0.203673
H      1.433949     2.693915     0.335159
H      2.069236     1.720566    -1.173434
