12

C      0.852593     0.933225     0.986788
C      0.504659     0.345289    -0.367589
C     -1.042308     0.136266     0.478151
O      0.098531     0.143532     1.898339
O      1.516470    -0.176333    -1.151278
O     -2.090848     0.386795     0.140985
H      2.039961     0.577009    -1.396809
H      0.547498     1.995601     1.030448
H      1.915175     0.868409     1.196757
H     -0.006089    -0.718053    -0.219588
H     -0.838172     0.731989     2.189403
H     -0.075070     1.016068    -1.023807
