12

C     -0.014675     2.379689     1.222659
C      0.028527     0.248124     1.400655
C      0.362808     0.062542    -0.043474
O      0.579026     1.955762     2.166572
O      0.818006    -0.557367     2.160395
O     -0.380842     0.467791    -0.955762
H      1.111907    -0.177202     2.939597
H     -1.320830     2.278134     0.947288
H     -1.041636     2.058968     0.074273
H      1.338794    -0.443301    -0.182456
H      0.371853     3.312522     0.820721
H     -1.006437     0.217835     1.679132
