12

C     -1.743496     0.196623     0.685560
C      2.019533     0.601261     0.796654
C      0.628060     0.099475     0.539995
O     -1.377419    -0.925525     1.297976
O      0.283624    -1.030381     1.259740
O     -0.317236     0.910328     0.202603
H      2.003541     1.200283     1.714599
H     -2.142473     0.998345     1.321922
H     -2.247365     0.089783    -0.302261
H      0.367678    -1.056731     0.003642
H      2.727992    -0.230722     0.919537
H      2.339963     1.250865    -0.020469
