12

C     -0.078781    -0.499398     0.984947
C      0.514954     1.442895     2.052608
C     -0.611474     1.698267     1.051175
O      0.864913     0.097235     1.831647
O     -1.424318     2.689131     1.062718
O     -0.984353     0.470533     0.549995
H     -0.399705     2.576134     0.015410
H     -0.672379    -1.258887     1.534179
H      0.418195    -0.934939     0.112052
H      0.440589     2.155738    -0.138258
H      0.089782     1.583784     3.049143
H      1.380875     2.100907     1.917381
