12

C     -0.538071    -0.595855     1.521431
C     -0.209889     1.775095     0.627336
C      0.817908     1.305251     1.506099
O     -1.477312     0.173295     0.836282
O     -0.849915     1.644763    -0.374782
O      0.482636     0.103856     2.197258
H      1.103708     2.092390     2.222544
H     -1.061567    -1.140660     2.325100
H     -0.072246    -1.303177     0.813094
H      1.701965     1.147680     0.878270
H     -0.523379     3.446725     0.931511
H      0.164463     3.472138     0.538957
