12

C      0.072952     0.329611     1.448375
C     -0.151164     0.545368     0.097150
C      0.427815     1.633739    -0.574775
O      1.583068    -0.289130     0.246147
O      1.577402    -1.528339     0.825279
O      1.441278     2.206132     0.012959
H      2.301948    -1.528906     1.427544
H     -0.145726    -0.662393     1.823330
H     -0.076073     1.122686     2.155806
H      0.095289     1.925684    -1.562259
H      1.667698     1.317341     0.711239
H     -0.943188    -0.018591    -0.383096
