12

C     -0.359453     0.497825     0.162509
C      0.487388     0.655301     1.433903
C     -0.210876     1.684527     2.315378
O     -1.505804    -0.048336     0.373809
O      1.795838     1.040347     1.175307
O     -0.868026     2.590682     1.875316
H      2.261848     0.255670     0.802091
H     -0.394698     2.017566    -0.379805
H      0.236047     0.153174    -0.698273
H     -0.085506     1.527129     3.404803
H     -0.948563     1.742005    -0.206530
H      0.438104    -0.312591     1.971392
