12

C     -0.121155    -0.453999    -0.156575
C     -0.249328     0.614722     0.574621
C      0.198995     1.648969     1.366740
O      0.472904     1.482132     2.693156
O      1.481175     0.576400     2.846807
O      0.723679     2.749594     0.808913
H      1.134442     0.153750     3.684937
H      0.322106    -1.365758     0.288403
H     -0.381523    -0.426496    -1.204873
H     -1.439194     2.159397     1.001458
H      1.441150     3.004895     1.439518
H     -1.639150     1.364791     0.704394
