12

C      1.025965    -0.581064     0.087311
C      1.039841     0.478177     1.065851
C     -0.266832     1.153379     1.281902
O      2.225971    -1.258582     0.001957
O      0.889904    -0.945943     2.209497
O     -1.212430     0.644062     1.805794
H      0.260926    -1.087704     2.906738
H      0.348461    -1.247470     1.089063
H      0.455929    -0.494688    -0.834110
H     -0.359174     2.196621     0.913697
H      2.433711    -1.562979     0.907503
H      1.952727     0.933690     1.424697
