12

C     -0.641574    -0.418216     0.489907
C      0.757114     1.720590    -0.019674
C      1.749924     0.969076     0.623670
O     -0.253371     0.081596     1.641936
O     -0.224032    -1.709332     1.640170
O      1.599096     0.153807     1.589061
H      0.702855    -1.687139     1.688500
H     -1.706457    -0.383873     0.285786
H     -0.100977    -0.813028    -0.320829
H      2.766742     1.055837     0.204726
H      0.949830     2.270352    -0.941642
H     -0.048450     2.117430     0.589989
