12

C     -1.355153    -0.532746     0.536712
C      1.495522     0.426322    -0.064678
C      0.412362    -0.088429     0.588366
O     -2.349718     0.028590     1.219164
O      2.525421     0.851513     0.711592
O      0.061843     0.297321     1.692184
H      2.113168     1.202570     1.546105
H     -1.504934    -0.321259    -0.516251
H     -1.214086    -1.582732     0.802069
H     -2.075809     0.294939     2.064379
H      1.127095    -1.012811     0.281583
H      1.631189     0.542523    -1.139226
