12

C     -1.239586    -0.484570     0.658749
C      1.282186     0.467174    -0.421819
C      0.429201     0.169147     0.648792
O     -2.172582    -0.538792     1.594177
O      1.835493    -0.485601     1.100525
O      0.010835     0.869007     1.610512
H      2.088207     0.120756     1.774643
H     -1.595329     0.104490    -0.174409
H     -0.936779    -1.520901     0.494707
H     -2.088075     0.200404     2.153504
H      1.586945    -0.273434    -1.153630
H      1.666284     1.478119    -0.563751
