12

C      0.543803     0.984121     0.290426
C     -0.012116     0.199346    -0.810258
C      0.053745    -0.039496     2.365964
O     -0.222743     0.952578     1.537824
O      2.037147     0.191244     0.176823
O      0.814821    -0.936148     2.171459
H      1.990761    -0.426311     0.902466
H      1.275721    -0.257904    -0.800525
H      0.827707     2.017071     0.137929
H     -0.537547     0.097408     3.284035
H     -0.332821     0.729097    -1.697675
H     -0.667076    -0.628606    -0.484469
