12

C      1.453738    -0.496235     0.646890
C      0.695521     0.676183     0.149017
C      0.092770     1.446914     1.249253
O      0.061451    -1.442330     0.574247
O      1.860471    -0.677119     1.892279
O      0.633219     1.624627     2.347369
H      1.563348     0.111652     2.422910
H      0.236313    -2.276751     0.805978
H      2.209359    -0.915082    -0.016764
H     -0.940744     1.804318     1.068888
H     -0.082536    -0.611236    -0.198553
H      0.993890     1.162961    -0.759513
