12

C      0.425740     1.736830    -0.604773
C      0.344513    -0.481086     0.181764
C     -0.348310    -0.697473     1.517905
O      0.225766     1.553707     0.692861
O      0.320136    -0.273535     2.593648
O     -1.421246    -1.270208     1.616316
H      0.825503     0.537941     2.386519
H      0.176594     0.571408    -0.951296
H     -0.277013     2.401677    -1.135756
H      1.463788     1.865438    -0.982273
H      1.424097    -0.589964     0.287937
H     -0.075567    -1.102135    -0.641251
