12

C     -0.740505     0.346787     0.268940
C      1.520519    -0.296114     0.339830
C      0.580864     0.884902     0.737517
O     -0.930349    -0.895904     0.323312
O      0.902373    -1.485214     0.655567
O      0.521374     0.983192     2.163531
H      1.385423     1.072851     2.506897
H     -0.485169    -0.788182     1.386863
H     -1.399490     0.862800    -0.433222
H      0.866063     1.825806     0.256098
H      1.723221    -0.224000    -0.751932
H      2.473973    -0.205223     0.890900
