12

C     -0.078581     0.479563    -0.094077
C      1.177259     0.266648    -0.852217
C     -0.435122     0.363992     2.093719
O     -0.220544    -0.379868     0.928009
O      0.559238     0.235533     2.956275
O     -1.550353     0.879985     2.147028
H      0.536699     0.503164     3.747739
H     -1.106304    -0.775342     0.584112
H     -0.793730     1.240479    -0.323304
H      1.950182     0.983634    -0.487429
H      1.008605     0.474331    -1.918837
H      1.585151    -0.751620    -0.754117
