12

C     -0.296518    -0.975681     1.310917
C      1.610949     1.019263    -0.264545
C      0.731130     1.592525     0.609002
O     -0.809906     0.310023     1.644089
O      0.920902    -0.909366     0.639384
O     -0.617415     1.127006     0.523565
H      0.229041     0.486819    -0.166442
H     -0.198271    -1.507028     2.276316
H     -1.082749    -1.432584     0.674299
H      1.051404     1.767367     1.617889
H      2.667226     0.937824    -0.068590
H      1.345007     0.940933    -1.324483
