12

C     -0.401413    -0.488715     1.380338
C      1.514808     0.804808    -0.211069
C     -0.307638     0.655425     0.455505
O      0.593237    -1.302647     1.439212
O      1.751206     0.053114     1.704474
O     -0.918574     1.715461     0.361222
H      2.133822    -0.773937     1.911828
H     -0.542883    -0.383579    -0.203632
H     -1.260025    -0.726670     2.010843
H      2.461455     1.190622     0.090279
H      1.739475    -0.173220    -0.587043
H      1.052029     1.469838    -0.942257
