12

C     -1.205737    -0.092692     0.059841
C      0.105436     1.435616    -0.226247
C      1.412133     0.737515    -0.042404
O     -0.926890     0.628374     0.983256
O      2.159917     0.722375    -1.184251
O      1.797207     0.265179     0.996361
H      2.837770     0.014817    -1.031318
H     -2.106443     0.477874     0.225176
H     -0.906934    -0.853551    -0.635804
H     -0.262568    -0.224635     1.225464
H     -0.180623     1.536693    -1.277843
H      0.085534     2.374436     0.325970
