12

C     -1.003018    -0.423627     1.293464
C     -1.076489     0.020291    -0.000516
C     -0.273296     2.117998     1.623735
O     -0.125573     1.042594     2.284874
O     -1.192715     3.012102     1.864530
O      0.547611     2.097150     0.630150
H     -1.620644     2.756261     2.736962
H     -1.831578    -0.350554     1.978547
H     -0.255918    -1.155348     1.576722
H      0.374541     1.036036     0.325235
H     -0.598235    -0.546234    -0.783628
H     -1.877786     0.694329    -0.282375
