12

C      1.129884     1.030174     0.660778
C      0.804132     0.404827    -0.571990
C     -1.298100     0.387358     1.424296
O     -0.064285    -0.134222     1.502937
O      1.734667    -0.188322    -1.332281
O     -1.742940     1.018170     0.468960
H      1.936206     0.500215    -1.933256
H      0.744815     2.005656     0.915103
H      1.992647     0.703747     1.223173
H     -1.906568     0.137603     2.308376
H      0.123094    -0.487534     0.222689
H     -0.030953     0.861826    -1.127085
