12

C     -0.899624     0.517045     0.167847
C      1.531263    -0.828844     0.716827
C      1.068617     0.370952     1.593534
O     -0.460325    -0.587222    -0.418191
O      0.919853    -0.741592    -0.547282
O     -0.119334     0.293584     2.110234
H      0.482763     1.127548     0.831559
H     -1.848246     0.454118     0.714822
H     -0.858443     1.415389    -0.468955
H      1.865871     0.898303     2.142636
H      1.184518    -1.745003     1.212196
H      2.616688    -0.851276     0.581271
