12

C      0.828300    -0.445797     1.456854
C     -0.381512     0.844179    -0.473659
C     -0.312407     2.272480    -0.423601
O      0.837698     0.661654     0.618904
O      0.939274    -1.652742     0.716850
O     -0.722215     3.268743    -0.822913
H      1.648021    -1.529811     0.066037
H      1.686429    -0.291048     2.135871
H     -0.105634    -0.485028     2.034140
H      0.762335     1.824305     0.650432
H     -1.249536     0.412065     0.028150
H     -0.014355     0.366001    -1.381765
