12

C      0.686807     0.081515    -0.822838
C     -0.153527    -0.253556     1.073405
C     -0.296348     0.990021     1.720490
O      1.058658    -0.807609     1.402195
O      1.920438     0.049371     0.648736
O      0.698865     1.802263     1.773751
H      1.621497     1.042707     1.161489
H     -0.172172     0.733773    -0.960480
H      1.527577     0.514568    -1.368520
H     -1.259403     1.273472     2.177011
H      0.570235    -0.947113    -1.127847
H     -0.995925    -0.907913     0.839007
