12

C      0.881545    -0.015817     0.548913
C      0.190403    -0.038041    -0.780520
C     -0.256546     0.810420     1.941506
O      0.411457    -0.766930     1.538337
O      2.246637     0.162682     0.373127
O     -1.412079     1.064611     1.686194
H      2.704585    -0.260588     1.114052
H      0.509868    -0.937255    -1.320942
H      0.590966     1.260827     1.087248
H      0.314417     0.830345     2.882272
H      0.480812     0.828656    -1.387746
H     -0.890564    -0.056410    -0.608440
