12

C      0.608210     1.294127     1.685695
C     -1.778803     1.805193     1.497006
C     -0.799364     1.405692     2.171360
O      1.177072     0.098027     1.582394
O      2.445841     0.090491     2.065322
O     -0.118625     1.526801     3.491705
H      2.989591     0.226541     1.272554
H      0.176314     1.706534    -0.123737
H      1.234996     2.187166     1.710695
H      0.167595     0.652576     3.830503
H     -0.423626     2.101218     0.053006
H     -2.677000     1.496835     1.015294
