12

C     -0.222894     0.288359     2.380559
C     -1.764625    -0.318008     1.148495
C      0.799019     0.917462     1.326827
O     -0.031662     1.418949     2.600940
O      0.337251     1.796003     0.386468
O      1.841856     0.290763     1.213259
H      1.026821     1.728375    -0.355437
H     -1.488390     0.381016     2.148087
H      0.092740    -0.644665     2.846211
H     -1.557254    -1.371579     1.277150
H     -1.527807     0.057901     0.167939
H     -2.803256    -0.087677     1.408901
