12

C     -0.834644     0.028052     0.492936
C      0.489939    -0.256149    -0.150241
C      1.433967     0.617172     1.149531
O     -0.842216     0.015980     1.781105
O      2.344453     1.338306     0.412471
O      0.498165     1.318363     1.758576
H      3.187237     1.349633     0.856594
H     -0.961442    -0.993633    -0.116178
H     -1.476373     0.750453    -0.034762
H      1.849474    -0.208366     1.737755
H      0.904377    -1.260360    -0.003394
H      0.574966     0.119950    -1.177293
