12

C     -0.731158    -0.231596     0.565934
C      1.658953    -0.330853     0.341596
C      1.049267     0.849366     0.854896
O     -0.233087    -1.040113    -0.408449
O      1.066786    -0.730574    -0.795487
O      1.315868     1.300867     2.108161
H      1.481738     2.197883     2.136756
H     -1.371714    -0.663052     1.289529
H     -1.256480     0.673244     0.290203
H      0.754162     1.629125     0.144293
H      0.393186    -0.569111     0.928293
H      2.290778    -1.003487     0.888674
