12

C     -0.236542    -0.389898     1.011814
C      1.425748     0.980438    -0.516141
C      0.292149     0.789037     0.272006
O      0.773324    -1.374798     1.126349
O      1.619799    -1.033857     2.070206
O     -0.439535     1.887550     0.366910
H      1.781473    -1.878573     2.520464
H     -1.076759    -0.822242     0.439074
H     -0.603456    -0.065780     1.999483
H      0.673565     2.250503    -0.034776
H      2.370913     0.496054    -0.268852
H      1.234821     1.202067    -1.576838
