12

C      0.863777     0.182895    -1.506034
C     -0.159689     0.301870    -0.654412
C     -0.021627     0.558065     0.747010
O     -0.956877    -0.022041     1.505324
O      0.235735    -0.172778     2.942842
O      1.112468     1.010500     1.235056
H     -0.114321    -1.043323     3.256104
H      1.751858     0.784403    -1.417041
H      0.787820    -0.496196    -2.349919
H     -0.447333     0.883499     2.218003
H      1.194251     0.410656     2.155696
H     -1.183764     0.180351    -0.962630
