12

C     -0.176220    -0.054102     1.921795
C      0.046433     0.127460    -0.484240
C      1.003563     1.015420     0.267972
O     -0.518419    -0.884514     1.069785
O      2.320066     0.606518     0.168726
O      0.558442     0.997731     1.657938
H      2.538296     0.144164     0.993960
H      0.385328    -0.979297     0.466297
H     -0.611676    -0.055639     2.905035
H      0.916027     2.063221    -0.053662
H     -0.904890     0.607279    -0.720452
H      0.214351    -0.705942    -1.119057
