12

C     -0.681820     0.081341     0.484893
C      1.587661    -0.311281     0.230962
C      0.604014     0.816315     0.543200
O     -0.457487    -1.240430     0.076270
O      0.821435    -1.377135    -0.269438
O      0.401880     1.117944     2.091796
H      1.100028     0.956418     2.664996
H     -0.616752     0.449421     1.869416
H     -1.536816     0.517341    -0.004734
H      0.758132     1.788637     0.097701
H      2.311532    -0.027305    -0.551039
H      2.126493    -0.689665     1.110377
