12

C      0.638925     1.515034     2.172670
C     -0.692319     0.946285     1.785096
C      0.576246     0.116129     0.371970
O      1.140775     1.667577     0.870546
O     -1.464934     1.794333     1.273756
O      0.554025    -1.014229     0.591952
H     -1.012700     1.864284     0.043788
H      1.281384     0.827290     2.736581
H      0.554686     2.486272     2.680419
H      0.831178     0.352402    -0.686197
H     -0.352940     2.295418     0.205308
H     -1.102327    -0.017697     2.071011
