12

C     -0.166674     0.198428     0.657835
C     -1.010947     1.108966     1.221692
C     -0.486904     2.181161     2.103809
O      1.046261    -0.015830     1.164657
O      1.800722    -0.613464     0.198012
O     -1.293838     3.105265     2.465994
H      2.529593    -0.953785     0.558393
H      0.641036     2.612270     1.032282
H     -0.503765    -0.441150    -0.155640
H      0.347628     1.860591     2.758090
H     -0.056596     3.216251     1.425474
H     -2.061318     1.162196     0.950101
