12

C     -0.713047     0.672541     0.353276
C      1.231645    -0.849264     0.025940
C      1.400461     0.028907     1.120967
O     -0.803362    -0.016990     1.322748
O      1.120277     1.372684     0.510006
O      0.362994    -0.077334     2.091187
H      1.751050     1.985630     0.139135
H     -1.354171     1.073239     0.920985
H     -0.787241     0.970840    -0.681568
H      2.339511     0.089433     1.664619
H      0.911795    -1.875276     0.155517
H      1.707989    -0.555011    -0.915712
