12

C     -1.336573     0.259186     0.492708
C      1.452857     0.905661     0.927187
C      0.413989    -0.779201     0.444933
O     -1.525183    -0.561835     1.498828
O     -0.118646    -1.169550     1.590577
O     -0.496679    -0.287538    -0.437023
H      2.093198     0.348221     1.608784
H     -0.205453     1.032983     0.993488
H     -2.195033     0.763073     0.072342
H      1.216136    -1.355531    -0.038220
H      1.873617     1.022095    -0.078359
H      1.370272     1.926136     1.344253
