12

C     -0.663534     0.088465    -0.036133
C      0.719011    -0.269593    -0.084239
C      1.459958     0.474674     1.009238
O     -0.528192    -0.325471     1.793588
O      1.820064     1.765728     0.594256
O      0.485316     0.552044     2.051839
H      2.744709     1.784503     0.358497
H     -1.399992    -0.589174    -0.467846
H     -0.978818     1.128165     0.031716
H      2.336605    -0.080211     1.391266
H     -0.046593    -0.993960     0.991887
H      1.219368    -0.715773    -0.926969
