12

C     -0.499526    -0.817944     1.466332
C      1.550382     1.156794    -0.476308
C      0.946275     1.022967     0.769130
O     -1.183828     0.428533     1.213979
O      0.656050    -0.836192     0.741226
O     -0.355980     1.260499     0.562392
H      0.765139    -0.438691    -0.315207
H     -0.233673    -0.928213     2.519666
H     -1.145001    -1.630508     1.161078
H      1.345341     1.360932     1.703139
H      1.242735     2.014480    -1.050283
H      2.463084     0.764441    -0.823645
