12

C     -0.338021     1.933965     0.797224
C     -1.321133     1.478895    -0.078902
C     -2.374228     0.259769     1.178891
O      0.681501     1.080560     1.061449
O     -3.306832     0.881629     1.473591
O     -1.989639    -0.794514     1.268597
H     -2.434391     2.001430     2.016696
H     -1.694599     2.083301     1.751373
H     -0.188395     2.991075     1.043652
H      0.934157     0.946131     1.924628
H     -1.993836     2.228656    -0.499965
H     -1.011682     0.654902    -0.724635
