12

C     -0.744173     0.342883     0.789586
C      1.678123     0.748935     1.426381
C      0.473230     1.629624     1.240370
O      0.183601    -0.429921     0.138698
O      1.318405    -0.529293     1.015059
O     -0.561779     1.849262     1.848542
H      0.838452     2.642550     0.017315
H     -1.449310     0.789856     0.111838
H     -1.168586    -0.184909     1.670412
H      0.719329     2.022470    -0.415187
H      2.541606     1.037017     0.818834
H      1.934102     0.786826     2.494550
