12

C     -0.650145    -0.094888     0.365572
C      1.720366    -0.268851     0.530030
C      1.110302     1.007858     0.794211
O     -0.130358    -1.367297     0.220178
O      1.116359    -0.995041    -0.358078
O      1.167740     1.529023     2.056816
H      0.766603     0.986837     2.672984
H     -0.743996     0.192921     1.355934
H     -1.591296     0.277411     0.020653
H      1.130694     1.807529     0.057800
H      0.308493    -0.131092    -0.687376
H      2.213537    -0.862808     1.315675
