12

C     -0.161058     1.001957     2.057963
C      0.858831    -0.071456     2.252722
C     -1.687628     0.712663     0.683409
O     -0.165790     1.682888     1.023038
O     -2.683375     0.956302     1.593405
O     -1.968061     0.987260    -0.429271
H     -3.086773     0.066338     1.661405
H     -1.293786    -0.363451     0.859714
H     -0.685733     1.370144     2.953170
H      0.631568    -0.685271     3.134981
H      0.939799    -0.673321     1.339194
H      1.819805     0.420847     2.424769
