12

C     -0.853134     0.645493     1.088380
C      1.358836    -0.514178     0.246846
C      0.543634    -0.249251     1.368428
O     -1.439574     0.149421    -0.069972
O      1.184890    -0.001599    -0.971977
O     -0.066694    -0.912271     2.212478
H      0.236617     0.120666    -1.069068
H     -1.526567     0.651242     1.953293
H     -0.482914     1.658053     0.897727
H     -1.656925    -0.783803     0.166235
H      1.380959     0.568884     1.555805
H      2.187672    -1.226756     0.343924
