12

C     -0.698593     0.380778     0.595899
C      0.332108     0.253718    -0.516482
C      1.751044     1.138669    -0.056552
O     -1.829307    -0.395628     0.271827
O      1.452699     1.776056    -1.069926
O      2.083744     1.031267     1.075108
H      2.710810     1.544296    -0.765409
H     -0.262871    -0.007162     1.521476
H     -0.959827     1.436532     0.772138
H     -2.379612     0.145365    -0.339192
H      0.763472    -0.744758    -0.581320
H     -0.154771     0.462866    -1.489266
