12

C      0.200156     0.031540    -0.791723
C      0.357153    -0.189489     1.020648
C     -0.114369     1.133522     1.625022
O      0.838239    -1.143672     1.622491
O      2.045393    -0.030254     1.016175
O      0.684706     1.996109     1.904129
H      2.105028     0.784389     1.414847
H     -0.736661     0.136210    -1.311720
H      0.754285     0.946842    -0.922060
H     -1.200170     1.224034     1.825734
H      0.742462    -0.833602    -1.161827
H     -0.469523    -0.484130     0.274686
