12

C     -0.657635    -0.122905     0.359818
C      0.787291    -0.117267    -0.155239
C      1.490083     0.766176     1.335880
O     -0.646906     0.254934     1.684999
O      2.376294     1.580675     0.784686
O      0.302003     1.264645     1.837957
H      2.156111     0.431031     0.200649
H     -1.123226    -1.117737     0.269694
H     -1.281267     0.621485    -0.159978
H      1.746231    -0.133738     1.928762
H      1.130602    -1.140992    -0.362529
H      0.888320     0.533094    -1.017599
