12

C      0.302523     0.775320    -0.428323
C     -0.015535    -0.245184     0.796856
C     -0.395445     1.281300     0.957074
O      1.052244    -0.808036     1.480855
O      2.272539    -0.505506     0.961416
O     -1.561001     1.682979     0.854602
H      2.812355    -0.748825     1.786000
H      0.324700    -0.551670    -0.453536
H     -0.391404     0.848451    -1.263566
H      0.368232     1.719148     1.614091
H      1.363781     0.965182    -0.592486
H     -0.926194    -0.841760     0.803518
