12

C     -0.715888     0.430490     0.258482
C      0.306416     1.371880     0.384320
C      0.366697     1.652488     1.854655
O     -1.003617     0.833074     2.267947
O      1.426062     1.326848    -0.369137
O      1.311221     1.643308     2.601719
H      2.150345     1.377267     0.298625
H     -0.475655    -0.550112    -0.137801
H     -1.763904     0.656597     0.246763
H     -0.225011     3.009266     1.498035
H     -0.695848     0.282083     3.005083
H     -0.429118     2.709411     0.642208
