12

C     -0.149472    -0.427981     1.336758
C      0.888888     0.498668     0.694099
C     -0.521021     1.624320     2.007293
O     -0.845819     0.380060     2.292329
O     -1.410784     2.432625     1.663500
O      0.741041     1.702555     1.498496
H     -0.599816     3.062339     0.887805
H     -0.887391    -0.808845     0.619172
H      0.300345    -1.262968     1.891670
H      0.473869     3.012835     1.311756
H      0.675883     0.685877    -0.361525
H      1.908476     0.128812     0.821546
