12

C      0.444748    -0.175696     1.294271
C      1.284566     1.638231    -0.400895
C      0.287688     0.693990     0.189339
O      1.119643    -1.357940     0.973192
O      0.294287    -2.145495     1.806633
O     -0.889360     0.525052    -0.295269
H      0.939546    -2.479455     2.440384
H     -0.892464    -0.449619     0.748390
H      0.632191     0.189834     2.305437
H      0.877159     2.652309    -0.402529
H      2.217319     1.637419     0.183977
H      1.500176     1.312171    -1.433233
