12

C      0.090909     0.864825     0.174954
C      0.479573     0.272290    -1.098602
C     -1.173964     0.893637     2.118112
O     -0.732907     0.202599     1.047954
O      2.193421    -0.390259    -0.504293
O     -1.647089     1.976425     2.116573
H      2.903725     0.192489    -0.226030
H      1.036351    -0.146942    -0.074796
H      0.500954     1.809648     0.537827
H     -1.124032     0.246533     3.004480
H     -0.089391    -0.565686    -1.495320
H      0.984950     0.884243    -1.839059
