12

C     -1.308524     0.024425     0.533436
C      1.430122    -0.445503    -0.207337
C      0.493934     0.049634     0.698264
O     -2.314013    -0.197093     1.380105
O      1.491679     1.254068     0.759879
O      0.185047    -0.267677     1.886377
H      1.890275     1.090791     1.622097
H     -1.349439     1.063867     0.200647
H     -1.317817    -0.743093    -0.234959
H     -1.990213    -0.444083     2.206162
H      2.124104    -1.231621     0.088666
H      1.531843    -0.047816    -1.211438
