12

C      1.061814     0.988646     1.695339
C      0.451853    -0.035237     0.964102
C     -1.538397     0.486564     2.062423
O     -0.431548     0.262475     0.052953
O     -1.052338     1.425262     0.358103
O     -1.312689    -0.309718     2.922692
H      0.332944     2.118267    -0.172978
H      0.969716     1.585456     0.351336
H      0.528859     1.889849     1.905394
H     -2.412742     1.129211     1.952212
H      1.926721     0.858713     2.328330
H      0.979310    -0.954788     0.729794
