12

C      0.745241    -0.121987    -0.667882
C      0.497284     1.268363    -0.231744
C     -1.062929    -0.083659     0.363421
O     -0.786930    -0.803159    -0.672046
O      0.575775    -0.814391     1.210150
O     -0.597611     1.091156     0.692152
H      1.045717    -1.507464     1.736892
H     -0.076977    -0.564785    -1.350059
H      1.704169    -0.552384    -0.907849
H     -1.945467    -0.426061     0.884381
H      1.358277     1.686300     0.288827
H      0.201751     1.933971    -1.054943
