12

C     -0.933190    -0.106704     0.385201
C      0.483026    -0.324738    -0.116391
C      1.261145     0.160878     1.091279
O     -0.824181     0.897376     1.383809
O      2.404974     0.799409     0.304953
O      0.481996     1.057657     1.809034
H      2.967237     1.336625     0.873066
H     -1.380446    -1.018138     0.817039
H     -1.629748     0.235378    -0.388425
H      1.730358    -0.578840     1.731793
H      2.037386    -0.209105    -0.331845
H      0.569341     0.569600    -0.852415
