12

C      0.761921     0.909541     0.826634
C      0.074091     1.897233     1.621894
C     -1.172755     1.631254     2.183731
O      1.908293     1.270758     0.202822
O      1.398965     0.889505     2.581546
O     -2.174457     1.290521     2.612218
H      1.609022    -0.004923     2.649776
H     -0.490461     1.602817    -0.398847
H      0.390698    -0.101463     0.697549
H     -1.052456     1.798423     0.010995
H      2.569510     0.643502     0.382208
H      0.399229     2.918532     1.482571
