12

C      1.051375     0.562613     1.599484
C     -0.007190     1.630237     1.795546
C     -1.216085     1.410790     1.264055
O      0.524556    -0.583488     0.925855
O     -0.378960    -1.221154     1.617193
O     -2.252686     0.693860     1.439982
H     -1.187876    -0.707894     1.783395
H      1.876163     0.948129     0.995172
H      1.440734     0.229614     2.570691
H     -0.984045     1.578312    -0.132967
H     -1.666457     0.893868     0.034203
H      0.223869     2.538612     2.303289
