12

C     -1.164196     0.423006    -0.243446
C      1.166927    -0.523830     0.673295
C      0.584360     0.499648     1.481115
O     -0.144243    -0.036988    -0.862952
O      1.447865     1.526108     1.808836
O     -0.702195     0.598001     1.507992
H      1.028563     2.369785     1.640486
H     -2.025274    -0.221082    -0.040497
H     -1.470981     1.477965    -0.378508
H      1.130661    -0.422806     2.189843
H      0.677968    -1.486261     0.629875
H      2.198746    -0.426445     0.360561
