12

C     -0.852087     0.395822     0.360109
C      1.102260    -0.427768    -0.084593
C      1.604340     0.010201     1.231528
O     -0.558065     1.144503     1.330373
O      1.861314     1.324257     0.519914
O      0.687189     0.068998     2.170222
H      1.105754     1.795377     0.774444
H     -1.441586    -0.507972     0.623935
H     -1.068390     0.920298    -0.601151
H      2.609179    -0.332486     1.527828
H      0.392836    -1.225415    -0.187396
H      1.725357    -0.346517    -0.958213
