12

C      0.687251     0.647167     0.808495
C      0.741740    -0.113539    -0.425748
C     -1.506224     0.723266     1.667013
O     -0.287431     0.210774     1.756002
O      1.962869     0.676303    -1.015051
O     -1.940030     1.324373     0.716518
H      1.829537     1.054345    -1.847650
H      1.566501     1.423000    -0.299564
H      1.495782     0.912263     1.401226
H     -2.099730     0.469761     2.546501
H      1.072698    -1.161145    -0.445021
H     -0.100364     0.072933    -1.101024
