12

C      0.564366    -0.987345     0.501234
C      0.351946     1.962632    -0.119088
C      0.782047     0.704013    -0.076099
O      0.805454    -1.011919     1.828598
O     -0.093881    -0.303307     2.584857
O     -0.444597    -0.347447    -0.173712
H     -0.256126     0.583530     2.321181
H     -0.789253    -1.271437     0.436265
H      1.214570    -1.675867    -0.058149
H      1.859765     0.593909    -0.144220
H     -0.671934     2.203663    -0.368179
H      1.068942     2.754578     0.079211
