12

C     -0.803092     0.119422     0.224328
C      0.682347    -0.000505    -0.124384
C      1.484736     0.635968     0.877535
O     -0.744860     0.130743     1.651731
O      2.184710     1.753355     0.644997
O      0.305769    -0.290807     1.765744
H      3.151577     1.493103     0.642597
H     -1.391267    -0.737675    -0.127643
H     -1.296808     1.040342    -0.134578
H      2.085942     0.025917     1.557833
H      0.498913    -1.250404     0.896155
H      1.009935    -0.100061    -1.167217
