12

C     -0.225368     0.562221    -0.666411
C      1.207609     0.617848    -0.641795
C     -0.244850     0.686590     2.083601
O     -0.334896    -0.305331     1.211893
O      1.789468    -0.449759    -0.190287
O      0.300153     1.753677     1.903986
H      0.634359    -0.585672     0.915726
H     -0.704178    -0.307630    -1.086977
H     -0.846361     1.453987    -0.559851
H     -0.731836     0.429614     3.041117
H      0.931407     0.771003    -1.831543
H      1.647095     1.613254    -0.417760
