12

C     -1.455916     0.802454     1.298030
C      1.199047     0.997240     1.270142
C      0.938886    -0.245757     1.825330
O     -0.816042     1.668164     2.094002
O      0.461006     1.996619     1.611123
O     -0.924157    -0.240941     0.877655
H      0.431965    -0.329667     2.779605
H     -1.163130     1.959084    -0.157999
H     -2.548674     0.809749     1.381689
H      1.589049    -1.105747     1.590739
H     -0.323619     1.902018    -0.140868
H      2.115083     1.231782     0.720350
