12

C     -0.317399     0.357805    -0.034040
C      0.977973     0.779741    -0.558660
C     -0.497942     1.278129     2.068775
O     -0.299484     0.124590     1.353711
O      1.448083    -0.728849    -1.061806
O      0.086607     2.295901     2.012806
H      1.482371    -1.320648    -0.332418
H      0.278245    -0.767479    -0.731349
H     -1.249910     0.772554    -0.394364
H     -1.241770     1.087215     2.819517
H      0.990552     1.305476    -1.513218
H      1.765274     1.055365     0.132749
