12

C     -0.110739    -0.329644    -0.728933
C      0.815004     0.463073    -0.145876
C      0.444526     1.011165     1.168911
O     -0.603987     0.517236     1.763315
O     -0.108926    -1.389925     1.408782
O      1.473501     1.479894     1.936457
H     -1.052057    -1.585510     1.256438
H     -1.168140    -0.130514    -0.595490
H      0.143065    -0.981575    -1.573398
H      0.117891     1.860734     0.399798
H      1.317369     1.032426     2.838681
H      1.794791     0.630342    -0.558682
