12

C      0.506655     0.379733    -1.380373
C      0.291956     1.289920    -0.314685
C     -0.314928    -0.608469     0.799467
O      0.537428    -1.156160    -0.090546
O     -0.058183    -1.186272     2.005838
O     -0.118288     0.800692     0.886262
H     -0.135449    -0.494512     2.695732
H     -0.313698     0.163925    -2.068467
H      1.461871     0.326774    -1.888803
H     -1.377933    -0.714929     0.463892
H      1.143439    -0.014001    -0.373448
H      0.035529     2.319099    -0.443567
