12

C      1.500632     1.228922    -2.592585
C      1.493505     0.910190    -0.506370
C      0.480483     0.226466    -1.266491
O      0.931357     2.387681    -2.454484
O      0.695281     2.645174    -1.176609
O     -0.702795     0.681269    -1.096184
H     -0.194806     2.088925    -1.126992
H      1.163133     0.688387    -3.471737
H      2.602448     1.329387    -2.597162
H      0.653840    -0.803577    -1.642418
H      2.580170     0.691744    -0.570596
H      1.185850     1.265130     0.465928
