12

C      0.491976    -0.481451     1.697183
C      0.289339     0.689494    -0.694839
C     -0.135300     2.001749    -0.101287
O     -0.176102    -0.371258     0.109035
O      1.575541    -1.142786     1.288672
O      0.199908     2.271773     1.052162
H      0.852706    -1.181439     0.224205
H      0.638394     0.536749     2.079292
H     -0.378884    -0.970016     2.139529
H     -0.729484     2.674717    -0.757045
H     -0.107516     0.530335    -1.713796
H      1.395923     0.687133    -0.717812
