12

C      0.741182    -0.724859     1.394102
C      0.169228     0.912603    -0.104219
C     -0.062757     2.250728    -0.407344
O      0.999255     0.572512     0.945986
O      1.036923    -1.675620     0.428560
O     -1.316328     2.368618    -0.674414
H      1.910920    -1.451627     0.053804
H      1.361445    -0.881068     2.287786
H     -0.325256    -0.823626     1.639668
H      0.549389     3.137186    -0.256764
H     -1.228785     1.383337     0.225309
H      0.081183     0.176816    -0.927178
