12

C      1.197281    -0.776474     0.317393
C      0.705819     0.189655     1.362823
C     -0.640628     0.520195     1.463481
O      0.873963    -2.073168     0.812720
O      1.412532     0.450262     2.503852
O     -0.395555     1.667473     1.073547
H      2.372193     0.424679     2.471273
H      0.689328    -0.576564    -0.646903
H      2.290197    -0.678797     0.173931
H     -1.588469     0.223890     1.875591
H      1.002083    -2.695492     0.065904
H      0.876457     1.551943     1.386188
