12

C      0.015343    -0.292734     0.975763
C     -0.231099     1.086098     0.407964
C      0.565376     1.464670    -0.676366
O      1.250381    -0.845638     0.552232
O      2.265646    -0.390482     1.352963
O      1.567481     2.194117    -0.291873
H      2.706790    -1.220389     1.612912
H     -0.767477    -1.000247     0.634425
H     -0.033055    -0.242105     2.075644
H      0.473299     1.177159    -1.702562
H      1.278616     1.669505     0.758635
H     -1.240102     1.453246     0.528162
