12

C     -0.651332     0.131690     0.402604
C      1.604225    -0.313301     0.211630
C      0.595467     0.800973     0.406290
O     -0.481146    -1.172395     0.024369
O      0.871709    -1.465280     0.012563
O      0.345839     1.150356     2.203325
H      0.978011     0.694063     2.726966
H     -0.533360     0.458430     1.824655
H     -1.571922     0.598353     0.052032
H      0.765630     1.812742     0.075348
H      2.243279    -0.139988    -0.674658
H      2.251899    -0.474042     1.079278
