12

C      1.440680    -0.660367     0.402717
C      0.834553     0.553442     1.588655
C     -0.709210     0.608036     1.608134
O      0.467279    -1.621297     0.441443
O      1.345519     0.178512     2.729850
O     -1.361470     1.291880     0.844163
H      2.079806     0.276941     1.374591
H      1.435498    -0.302700    -0.481875
H      2.450278    -1.055725     0.634424
H     -1.137685    -0.047336     2.412808
H      0.843688    -2.471533     0.285096
H      1.106265     1.477748     1.019794
