12

C     -0.720565    -0.741676     1.024701
C      0.904824     2.108521     0.306831
C      1.241181     0.904268    -0.084325
O     -0.191158    -0.232792    -0.168605
O      0.188922    -1.277072     1.924942
O      1.671593    -0.200336    -0.113868
H      1.006571    -1.400421     1.456796
H     -1.208409     0.077134     1.587325
H     -1.451160    -1.497599     0.723988
H      2.594632     0.397840    -0.128563
H      1.596423     2.751094     0.834296
H     -0.082153     2.468140     0.107982
