12

C      1.008224    -0.799799     0.805277
C      0.051418     0.151898     0.803418
C     -0.889351     0.675143    -0.099279
O      1.533201    -1.289158     1.950850
O      1.770118    -0.404921     2.862653
O      0.233275     1.604430    -1.076795
H      2.475166    -0.768495     3.403430
H     -1.584204     1.455376     0.200321
H      1.413913    -1.319629    -0.070203
H     -1.320685     0.068515    -0.909287
H      0.735226     2.135420    -0.890755
H      0.345199     1.373520     0.094268
