12

C      0.043248    -0.342673     0.998507
C      1.371863     1.186693    -0.687539
C      0.390432     0.906039     0.248236
O      1.216204    -0.925414     1.519177
O      0.887448    -2.054827     2.087453
O     -0.343946     1.934730     0.503790
H      1.330444    -2.122773     2.929101
H     -0.424483    -1.069275     0.301577
H     -0.672820    -0.092160     1.803115
H      0.589584     2.464553    -0.062679
H      2.405223     0.856962    -0.498884
H      1.022202     1.298845    -1.732256
