12

C     -1.172267     1.356395     2.178934
C      0.894594     1.377227     0.540101
C      0.028200     2.046423     1.619111
O     -1.571267     0.447146     1.427488
O      0.138802     0.902179    -0.535040
O      0.225211     3.121769     2.099239
H      0.687019     0.793580    -1.310215
H     -2.094759     1.040433     0.642496
H     -1.769670     1.838303     2.945344
H     -1.776896     1.738075     0.028764
H      1.661061     2.114889     0.244721
H      1.420472     0.517282     0.973756
