12

C     -1.174164     0.307961     0.233320
C      1.588635    -0.820563     0.593148
C      1.069139     0.605133     1.466902
O     -0.779722    -0.649571    -0.463363
O      1.136127    -0.704924    -0.613157
O     -0.180534     0.519466     1.718863
H      1.353980     1.431563     0.780347
H     -2.100081     0.213532     0.817827
H     -0.969691     1.299476    -0.157231
H      1.724383     0.517903     2.361736
H      1.131380    -1.635514     1.172137
H      2.684151    -0.761462     0.725972
