12

C     -0.473784    -1.275548     1.142988
C      2.045191     1.533412    -0.033606
C      0.751088     1.512992     0.484555
O      0.724811    -0.574334     1.007552
O      0.860464    -0.096745    -0.210063
O     -0.304858     2.034482     0.497266
H     -0.525541    -1.681012     2.176637
H     -0.482870    -2.090163     0.422616
H     -1.296170    -0.593555     0.944226
H      1.473953     1.672748     1.524870
H      2.244046     2.324191    -0.744600
H      2.824572     0.831333     0.277158
