12

C      0.723150     0.725652    -1.267091
C      0.409960     0.270675    -0.018316
C     -0.732424     0.232954     0.777871
O     -0.813784    -0.220071     2.026175
O      0.309387    -0.844258     2.521595
O      1.131117     1.180112     0.997099
H      0.120031    -0.815909     3.478608
H      0.563951     1.783783    -1.481141
H      1.111065     0.091524    -2.048394
H     -1.727474     0.514081     0.418008
H      1.426147     0.525316     1.640347
H      0.541272    -0.865860     0.125241
