12

C      0.107925    -0.101178     1.882265
C      0.078206     0.386502    -0.076158
C      0.699628     1.419878    -0.694583
O      0.968204    -0.781688     1.376975
O      1.210708    -1.075181     0.151122
O      1.839421     2.072169    -0.323942
H      1.719528    -0.053509     1.061081
H     -0.176565    -1.052482     2.369219
H     -0.404602     0.780003     2.136037
H      0.288695     1.871241    -1.591707
H      2.377114     1.601332     0.253494
H     -0.857061    -0.013788    -0.316003
