12

C     -0.898729     0.690282     0.509352
C     -0.046398     1.346751    -0.475208
C      1.394611     1.269893    -0.094213
O     -0.926476    -0.739185    -0.426297
O      1.859700    -0.030211    -0.230925
O      2.027411     2.208765     0.344156
H      2.770222    -0.043091     0.064646
H     -0.514803     0.528502     1.513658
H     -1.970631     0.838598     0.500011
H     -0.195837    -1.365637    -0.189823
H     -0.321063     0.075007    -1.114783
H     -0.369106     2.242126    -0.982174
