12

C     -0.768168    -0.588951     1.005359
C      1.611283     0.463832     0.047512
C      1.035281     1.575452     0.689152
O     -0.604336    -0.169506    -0.354980
O      0.747605    -0.253508    -0.736114
O      0.221693    -0.068165     1.801049
H      1.659729     2.236434     1.294330
H     -1.735068    -0.228692     1.378783
H     -0.711357    -1.690145     0.973036
H      0.035458     1.880524     0.428022
H      1.398693    -0.250993     1.201816
H      2.660086     0.450818    -0.256468
