12

C     -0.881107     0.117721     0.283385
C      0.551619     0.022661    -0.093288
C      1.258838     0.283071     1.162296
O     -0.873971     0.524390     1.625738
O      2.732007     0.423233     0.355883
O      0.371919     0.298940     2.213265
H      2.123410     1.235286     0.306977
H     -1.404309    -0.861074     0.228319
H     -1.413214     0.865812    -0.332937
H      2.044416     0.288369     1.784816
H      1.845357    -0.566694     0.280409
H      0.813134     0.187584    -1.107864
