12

C      0.431229    -0.037055    -0.795863
C     -0.447437    -0.040414     0.815154
C     -0.420234     1.251954     1.379479
O      0.691977    -0.747671     0.867696
O      2.133325     0.465854     1.448158
O     -0.995035     2.252035     1.547610
H      2.386223    -0.034517     2.277751
H      0.485552    -1.009604    -1.267954
H     -0.309409     0.582286    -1.286998
H      1.242557     1.034439     1.639493
H      1.389145     0.456901    -0.793839
H     -1.381094    -0.602808     0.685811
