12

C      1.338902     0.864166     0.303947
C      1.224868    -0.273414    -1.036149
C     -0.518288     0.789942     1.900766
O      0.974964     2.051921     0.262845
O     -0.298459     0.748906     0.596010
O      0.304980     0.576129     2.772036
H      2.120419    -0.598234    -1.556541
H      2.151875     0.687820    -0.613362
H      1.807038     0.257192     1.072447
H     -1.571142     1.014389     2.094152
H      0.780241    -1.139462    -0.584129
H      0.562300     0.227546    -1.756018
