12

C      0.196797     1.329842    -0.458417
C      0.981674    -0.689790     0.374497
C     -0.310954    -0.325880     1.155119
O      1.317766     0.594164    -0.134568
O     -0.099346     0.447673     2.248245
O     -1.200453    -0.249593     0.224453
H      0.559656     1.116930     2.099630
H     -1.039550     0.928246     0.524644
H      0.284359     2.386387    -0.151484
H     -0.109609     1.194305    -1.503825
H      1.768293    -1.087774     1.016382
H      0.735265    -1.391811    -0.433078
