12

C      0.827782     0.556071     1.123068
C      0.230598     1.688721     1.778624
C     -1.197465     1.836877     1.704564
O      1.805764     0.580685     0.297837
O      1.372924     0.893255     2.796456
O     -2.273664     2.061329     2.099639
H      2.095671     0.296391     2.801950
H     -0.502711     1.542156    -0.485520
H      0.409082    -0.436879     1.305284
H     -1.145395     1.649877    -0.160264
H      1.828617     1.428887    -0.191684
H      0.770297     2.648328     1.783243
