12

C     -0.990825     0.370702     0.496834
C      1.620649    -0.783089     0.993348
C      1.073244     0.416109     1.536866
O     -0.433332    -0.550135    -0.401774
O      0.868428    -0.280224    -0.691546
O     -0.298368     0.400671     1.766661
H      1.179202     0.726923     0.260019
H     -2.036524     0.098060     0.688865
H     -0.906440     1.375807     0.054581
H      1.685407     1.073176     2.137907
H      1.038099    -1.696950     1.008063
H      2.684059    -0.828049     0.786674
