12

C      1.391892    -0.666327     0.671179
C      0.235393     0.250699     0.234165
C      0.274662     1.555371     0.771757
O      1.325395    -1.852309    -0.046667
O      1.405039    -0.942332     2.034040
O      0.002805     1.582267     2.083533
H      1.094118    -0.156120     2.505024
H      1.010544    -2.526865     0.579154
H      2.349110    -0.166015     0.405714
H      0.571401     2.505282     0.289314
H     -0.673990     0.762333     1.397179
H     -0.209669     0.062116    -0.742391
