12

C      0.825548     0.547915     0.471530
C      0.090321     0.077078    -0.691708
C     -0.509440     0.599367     2.296196
O      0.549575    -0.040182     1.683825
O      2.240175    -0.358442    -0.136686
O     -0.828099     1.697864     2.111876
H      2.618980    -0.659671     0.660489
H      1.190995    -0.838509    -0.667192
H      1.243540     1.556722     0.532488
H     -1.012800    -0.059972     3.006559
H      0.299571     0.616454    -1.619927
H     -0.936764    -0.256124    -0.573454
