12

C     -0.680316    -0.285495    -0.656232
C      1.403920     0.478441     1.047567
C      0.182878     0.774763     1.723465
O      1.235811     0.394669    -0.344349
O      2.392536    -0.144011     1.666320
O     -0.892386     0.746912     1.133400
H      2.970179    -0.599245     0.980359
H     -0.345253     0.081945    -1.617915
H     -1.743325    -0.199106    -0.495993
H      0.194930     1.032086     2.787376
H     -0.306674    -1.240459    -0.318976
H      1.721898     1.354701     0.035177
