12

C      1.101319     0.932108    -2.258573
C      0.034408     0.300471    -1.325557
C      1.822983     1.216543    -0.656028
O      0.921010     2.305844    -2.284611
O      1.031714     2.661746    -0.933362
O      2.994660     1.122929    -1.056705
H      0.311505    -0.431233    -0.514365
H      1.198010     0.479415    -3.257503
H      2.243668     0.665647    -1.957382
H      1.854329     3.312823    -0.876056
H     -0.579581     1.101179    -0.916341
H     -0.545122    -0.327872    -1.999414
