12

C      0.346035    -0.130052     1.559804
C      1.183393     1.310655     0.111793
C     -0.201596     0.293214     0.299927
O      0.808017    -1.299486     1.845608
O      1.550519    -1.829308     0.817383
O     -0.631972    -0.338941    -0.713373
H      0.870904    -2.037297     0.142545
H     -0.884850     0.992392     0.909346
H      0.480090     0.567287     2.395531
H      1.219106     1.215602    -0.984148
H      0.919714     2.276995     0.540036
H      2.156143     1.019740     0.485248
