12

C      0.922392     0.813436     0.816666
C      0.042056     0.193554    -0.709995
C      0.077441    -0.005697     1.926265
O      0.290604     1.535280     1.646805
O      2.216858     0.367938     0.845586
O      0.610537    -1.028756     2.225652
H      2.178531    -0.472742     1.339429
H      0.419846     0.446955    -1.706926
H      0.755309     1.270411    -0.342735
H     -0.987173     0.144254     2.186917
H     -1.003718     0.483862    -0.577216
H      0.248717    -0.866095    -0.576448
