12

C     -0.964959     0.572289    -0.155502
C      1.192680    -0.509909     0.489045
C      0.713935     0.230320     1.626194
O     -0.175125    -0.122204    -0.843627
O      1.351939     1.447432     1.881483
O     -0.741773     0.756846     1.228171
H      0.847347     2.052551     1.322682
H     -1.533510    -0.016503     0.902053
H     -1.543088     1.396649    -0.609230
H      0.511481    -0.333161     2.550954
H      1.034905    -1.580197     0.441035
H      2.034369    -0.117012    -0.066657
