12

C     -0.024688    -0.652356     0.545230
C      0.569538     1.711471    -0.763468
C      0.725138     1.115410     0.460332
O      0.330420    -1.672701     1.412946
O     -0.320494    -1.493164     2.563753
O      0.898868     0.908477     1.583826
H      0.335747    -1.149386     3.178524
H     -1.064338    -0.356710     0.625446
H      0.377679    -0.935406    -0.425969
H      1.742533     1.823607     0.124416
H      0.452872     1.131224    -1.681239
H      0.368026     2.774533    -0.811796
