12

C     -0.010145    -0.764826     0.868190
C     -0.103312     1.492129     1.421038
C      0.561603     2.285140     2.491186
O     -0.535952     0.284958     1.629834
O     -0.266611     2.070732     0.290304
O      1.115966     1.806286     3.461675
H     -0.833502     1.213608    -0.643206
H     -0.873204    -1.225836     0.396702
H      0.753523    -0.376664     0.180777
H      0.533206     3.372730     2.298048
H      0.424057    -1.490884     1.548265
H     -1.286429     1.857226    -0.092216
