12

C      0.594595     0.271988    -1.326678
C      0.231847     1.325493    -0.361973
C     -0.534298    -0.395117     0.874521
O     -0.019971    -1.083185    -0.261256
O     -0.168986    -0.974394     2.078160
O      0.066476     0.898588     0.870670
H      0.819913    -1.070727     2.034338
H      0.102740     0.244262    -2.293397
H      1.636737    -0.035855    -1.405825
H     -1.620567    -0.287456     0.775064
H      0.587007    -0.113207    -0.051754
H     -0.037094     2.325412    -0.640769
