12

C      1.568916     0.951878    -0.603093
C      1.531296    -0.256520    -1.384229
C     -0.603430     0.751310     2.504704
O      0.244352     0.426442     0.288481
O      0.415349     0.440107     1.614990
O     -1.539501     0.039053     2.730330
H      0.756271    -0.628960    -0.287132
H      1.257106     1.924190    -1.006433
H      2.348170     1.041108     0.170103
H     -0.406668     1.680946     3.096982
H      0.901816    -0.275897    -2.270699
H      2.404021    -0.886857    -1.397906
