12

C      0.982714     0.098682     1.723742
C      0.172813     0.904128     0.749079
C     -1.137077     1.000204     0.832966
O      0.389931    -1.191252     2.002356
O     -0.340092    -1.051083     3.164058
O     -1.937602     1.773144     0.202500
H     -1.255646    -0.977832     2.857916
H      1.979168    -0.096315     1.298062
H      1.103791     0.622620     2.677503
H     -2.144223     2.625619     0.634786
H     -1.091289     2.876718     0.128588
H      0.701111     1.388768    -0.075756
