12

C     -0.274736     0.724671    -0.041983
C      0.654786     1.490148     0.661373
C      0.363002     1.958057     1.968389
O      0.679381     0.520358     2.301070
O      0.016666     0.138785     3.332378
O      0.760639     2.926881     2.573586
H      0.450253     0.626806     4.047204
H     -1.424814     0.906325     1.423850
H     -1.281446     0.583540     0.373702
H     -1.244993     1.881476     1.804076
H     -0.222281     0.672799    -1.117184
H      1.458444     1.973751     0.134642
