12

C     -0.353478    -1.036274     0.662174
C      0.924920     1.671156    -0.211882
C     -0.019830     0.713307     0.011003
O     -0.184947    -0.698126     1.953180
O      1.569261     0.497423     1.922985
O      0.608650    -0.588247    -0.135735
H      1.626000    -0.352516     2.249884
H     -1.084069    -0.185615    -0.144615
H     -0.714007    -2.033472     0.407398
H     -0.370188     1.035113     1.041180
H      1.655245     1.467787    -0.998851
H      0.733846     2.714463     0.055277
