12

C      0.618744    -0.898787     0.157402
C      0.517160    -0.018112     1.317834
C     -0.326941     1.149181     1.421406
O      2.191681    -0.919483     0.099630
O      0.955953    -0.549947     2.488251
O     -0.450025     1.713792     2.511827
H      0.834847     0.159417     3.166852
H      0.305697    -1.933903     0.293561
H      0.368020    -0.460900    -0.813272
H     -0.787905     1.511415     0.476540
H      2.568024    -1.406914     0.739945
H      1.999744    -0.118060     0.999824
