12

C      0.598576     0.151750    -1.253764
C      0.686439     1.292544    -0.400306
C     -0.579844    -0.504620     0.772067
O      0.038740    -0.950364    -0.569041
O     -0.003359    -1.296822     1.715665
O     -0.373945     0.830326     0.878496
H      0.218931    -0.737245     2.439620
H     -0.608768    -0.351187    -1.401461
H      1.416913    -0.149637    -1.910624
H     -1.623068    -0.827654     0.676875
H      1.648892     1.431618     0.077971
H      0.238893     2.217093    -0.734197
