12

C      1.601806     1.182257    -2.426847
C      0.162717     0.843914    -0.780911
C      1.305590     0.001381    -1.083804
O      0.698932     2.195890    -2.708205
O      0.337724     2.847439    -1.596697
O      2.325741     0.146406    -0.323012
H      1.271775     2.926157    -0.996042
H      1.649688     0.494388    -3.267880
H      2.557482     1.571271    -2.098530
H      1.067883    -0.939159    -1.617639
H      0.173247     1.313754     0.197685
H     -0.763584     0.755901    -1.333818
