12

C      0.143522     0.133555    -0.710002
C     -0.086513     0.249383     0.726117
C     -0.414816     1.668178     1.156642
O      1.437493    -0.116372     0.890869
O      1.921104    -1.009547     1.539622
O     -1.529878     2.078229     1.155002
H      2.570590    -1.388218     1.829262
H      1.533509     0.034453    -0.282589
H     -0.035925    -0.864284    -1.144734
H      0.437922     2.323520     1.434078
H     -0.116838     0.973520    -1.348078
H     -0.653372    -0.511119     1.270110
