12

C     -0.516958    -0.388818     0.669433
C      1.406087     1.123005    -0.407646
C      0.301749     1.341810     0.219863
O      0.568602    -1.247179     0.718287
O      1.154061    -1.078088     1.914296
O     -0.730092     1.525953     0.825184
H      0.857052    -1.768456     2.503337
H     -1.115915    -0.449365     1.576427
H     -1.083147    -0.501336    -0.249439
H     -0.231978     2.564779     0.431694
H      1.595247     0.228303    -0.939093
H      2.186492     1.854592    -0.450542
