12

C      0.561127    -0.122692     1.227710
C      1.291219     0.833308     0.885800
C      0.979311     2.191988     1.122004
O      0.599855    -1.268022     1.885560
O     -0.527327    -0.773596     2.689563
O      0.257554     2.576044     1.747289
H     -0.204489    -1.757817     2.388512
H      0.376262     2.175024     0.157629
H     -0.767851    -0.256065    -0.064178
H      1.394709     3.113808     1.169679
H      0.171599     2.034655     2.336279
H     -0.244968     0.317366     0.020455
