12

C     -0.984095     0.675545     0.909312
C      1.510248    -0.218565     0.523493
C      0.192588    -0.111449     1.203529
O     -2.038485     0.227995     0.226766
O      1.503352     0.340366    -0.776229
O     -0.094026    -0.717302     2.337372
H      0.863302    -0.140909    -1.258175
H     -1.180396    -0.093748     2.206471
H     -0.923354     1.762544     0.774084
H     -2.076142    -0.687398    -0.016810
H      2.276216     0.351711     1.065625
H      1.817590    -1.282890     0.526662
