12

C      0.309470    -0.389163    -0.983529
C      0.831528     0.580736    -0.247918
C      0.214254     1.085450     1.350096
O     -1.042075     0.502156     1.538666
O     -0.972432    -0.792281     1.695244
O      1.204516     0.550426     2.112523
H     -0.529540    -0.955820     2.540593
H     -0.472300    -1.016476    -0.554756
H      0.663872    -0.597519    -1.984318
H      0.129328     2.175957     1.266528
H      1.276251     0.046288     1.053253
H      1.449229     1.388147    -0.616482
