12

C      0.179158    -0.114131     1.432707
C     -0.234501     0.335133     0.084387
C      0.478995     0.972027    -0.825957
O      1.555191    -0.423424     1.603274
O      1.779965    -1.584425     0.956770
O      0.966274     2.264282    -0.042320
H      2.279552    -1.256366     0.162898
H     -0.397474    -1.022689     1.641269
H     -0.055267     0.595351     2.264399
H      0.336872     1.236013    -1.860448
H      1.184206     2.131546     0.924845
H     -0.221775     1.919983    -0.114024
