12

C      0.921739    -0.151669     0.542510
C      0.135564     1.150106     0.372820
C     -0.648984     1.175637     1.639653
O      0.789872    -0.503316     1.879512
O     -1.818903     1.759743     1.808899
O     -0.296983     0.182127     2.446967
H     -1.410259     2.850033     1.483931
H      0.495723    -0.964980    -0.069621
H      1.985399    -0.034454     0.317762
H     -0.770624     2.668561     2.156654
H     -0.556358     1.126756    -0.483652
H      0.804414     2.021853     0.262165
