12

C     -0.728602    -0.405374     0.485212
C      1.370230     0.930537    -0.197486
C      0.201808     1.261542     0.606210
O      0.338182    -1.247521     0.710350
O      1.421068    -0.798749     1.297942
O      0.039958     1.044000     1.835630
H      1.089050    -0.575518     2.221876
H     -1.531084    -0.513355     1.213270
H     -1.077379    -0.398616    -0.551893
H     -0.325321     2.172299     0.310729
H      1.379394     0.110746    -0.900218
H      2.213896     1.625210    -0.219823
