12

C      1.093816     1.612708     0.360765
C     -0.557835     0.456096     1.550727
C     -0.908622     1.490089     2.563074
O     -0.500734     0.992935    -0.629104
O     -1.328972     1.658258    -0.172466
O     -0.561938     2.597512     2.614964
H      1.437946     1.710654     1.363078
H      0.800886     2.605749    -0.025412
H      1.726201     0.961405    -0.231259
H     -1.507331     1.101239     3.413975
H      0.326032    -0.138242     1.753057
H     -1.444950    -0.135504     1.248600
