12

C     -0.741750    -0.186894     0.449986
C      0.634279    -0.113405    -0.225912
C      1.413186     0.639111     0.786743
O     -0.496483    -0.115458     1.838996
O      2.546295     1.197229     0.340853
O      0.708543     1.298688     1.729888
H      3.223486     1.166729     1.002449
H     -1.246973    -1.130396     0.212324
H     -1.383594     0.641862     0.116357
H      0.825322     0.116741     1.999529
H      1.067818    -1.121309    -0.362976
H      0.617770     0.426503    -1.181137
