12

C     -0.823890    -0.732171     0.688136
C      1.123052     1.973673     0.674576
C      1.243815     0.632798     0.531854
O     -0.569608    -0.434009    -0.540100
O      0.650719    -0.267300     1.691532
O      0.854901    -0.079034    -0.584990
H      1.341492    -0.945325     1.739314
H     -1.556198    -0.161584     1.278159
H     -0.817612    -1.818451     0.901912
H      2.037995     0.174183    -0.373311
H      1.887347     2.582818     1.099408
H      0.178687     2.431499     0.365010
