12

C      0.175975     0.105055    -1.026647
C     -0.043167     0.130566     0.451471
C     -0.236426     1.351152     1.197330
O      0.676997    -0.793718     1.234880
O      1.869997     0.358556     1.884133
O     -0.814004     2.357828     1.277929
H      2.229835    -0.333239     2.374020
H      0.124668    -0.916180    -1.427433
H     -0.582252     0.709314    -1.545189
H      0.884542     1.110798     2.127990
H      1.177124     0.506917    -1.271187
H     -0.256490    -1.015650     1.239204
