12

C     -0.668916    -0.259582     0.462163
C      1.515645    -0.092127     0.143681
C      0.711335     0.983408     0.867373
O     -0.845708    -1.077144     1.319827
O      0.812085    -1.300391     0.203630
O      0.925790     0.963416     2.248187
H      0.741995     0.062318     2.526676
H     -0.678268     0.864005     0.937112
H     -1.030474    -0.081255    -0.556356
H      0.754843     2.010889     0.464702
H      1.668600     0.187514    -0.916663
H      2.511473    -0.179349     0.644067
