12

C     -1.270137     0.293076     0.485202
C      1.957775     1.132339     1.737355
C      0.481768     0.915267     1.575606
O     -1.840887     0.176274     1.610404
O     -0.282461     0.775194     2.572604
O      0.083632     0.285545     0.403970
H      2.423471     0.329609     2.314870
H     -1.249709     1.953259     0.750704
H     -1.717944    -0.071814    -0.439354
H     -0.559565     2.398100     0.988930
H      2.115329     2.071383     2.290839
H      2.454828     1.183467     0.763668
