12

C     -0.977700     0.606008    -0.212280
C      0.933307    -0.486048     0.240944
C      0.551021     0.290864     1.509487
O     -0.087851    -0.242186    -0.734769
O      1.405044     1.408179     1.613742
O     -0.875543     1.051341     1.011993
H      1.032812     1.961982     2.323322
H     -1.043512    -0.001261     1.246946
H     -1.573991     1.145138    -0.927161
H      0.516457    -0.275688     2.447790
H      0.972644    -1.565975     0.436293
H      1.875313    -0.115354    -0.189807
