12

C     -0.236643    -0.389704     1.011955
C      1.425998     0.979912    -0.516585
C      0.291781     0.789039     0.272444
O      0.774267    -1.372879     1.126579
O      1.619790    -1.034359     2.070418
O     -0.438632     1.888694     0.367739
H      1.780650    -1.878826     2.521083
H     -1.076723    -0.822166     0.438979
H     -0.603423    -0.065379     1.999311
H      0.673420     2.251250    -0.035014
H      2.370109     0.493866    -0.269967
H      1.234804     1.200952    -1.577143
