12

C      0.225039    -0.051983     1.350123
C      1.240464     1.166594    -0.459041
C     -0.229419     0.727783     0.228228
O      1.208084    -0.963153     1.248618
O      0.933745    -2.037820     2.077611
O     -1.127077     1.595366     0.138662
H      1.563344    -2.067342     2.782821
H     -0.292381    -0.280775    -0.411909
H     -0.168727     0.089598     2.373411
H      1.290617     2.228161    -0.204993
H      2.141705     0.609388    -0.187327
H      1.030006     1.024885    -1.526605
