12

C      0.553224    -0.147763    -1.042501
C      0.529432     1.228925    -0.648772
C     -0.683264    -0.379178     1.133099
O     -0.420524    -0.881122    -0.657287
O     -0.198580    -1.356853     1.920666
O     -0.043868     0.726689     1.235109
H      0.773526    -1.201781     2.027185
H      0.364126     0.578924    -2.074883
H      1.548451    -0.565409    -1.270128
H     -1.759174    -0.446179     0.978045
H      1.427534     1.822190    -0.647337
H     -0.432482     1.727360    -0.662093
