12

C     -1.212127     0.379883    -0.285651
C      1.195576    -0.521134     0.646539
C      0.586940     0.520638     1.407320
O     -0.278607    -0.290533    -0.829180
O      1.381398     1.659238     1.489282
O     -0.682262     0.564455     1.564028
H      0.992541     2.228997     2.186274
H     -2.170855    -0.058170     0.012021
H     -1.296500     1.471360    -0.450850
H      1.277683    -0.295288     2.141496
H      0.772270    -1.511611     0.703550
H      2.161840    -0.370937     0.181772
