12

C      0.950121    -0.508241    -0.399917
C      0.682203     1.548601     0.859376
C      0.144721     0.282480     0.599693
O      1.980248    -0.880642     0.432632
O      1.979352    -0.162371     1.550950
O     -0.980524    -0.092557     1.163086
H      0.992955    -0.584214     1.925927
H      1.340117     0.147362    -1.188270
H      0.449166    -1.360109    -0.845356
H     -1.102984    -0.999567     1.300912
H      1.228895     2.113194     0.113760
H      0.398330     2.025164     1.803405
