12

C     -0.124322     0.065055     1.355798
C     -0.204749     0.591129     0.067777
C      0.552690     1.725966    -0.379715
O      1.089437    -0.818063     0.047049
O      2.203018    -0.392265     0.744730
O      1.459124     2.088585     0.318273
H      2.509717    -1.115902     1.294063
H     -0.587962    -0.898636     1.514502
H     -0.209803     0.718193     2.215711
H      0.412780     2.137424    -1.385217
H      1.789475     0.659988     0.998825
H     -1.038205     0.291726    -0.563896
