12

C      1.029117    -0.535941     0.958565
C      0.090305     0.441004     0.993030
C     -0.610836     0.815091    -0.279299
O      1.998831    -1.201240     0.986661
O      1.170869    -0.825578     2.846366
O      0.254491     0.949054    -1.370617
H      1.991709    -0.484186     3.092947
H     -1.192287     1.740324    -0.124353
H      1.525067    -0.747091    -0.122613
H     -1.307426     0.022676    -0.581832
H      0.841949     1.700822    -1.238861
H     -0.020289     1.007367     1.913906
