12

C     -0.744134     0.323772     0.443223
C      1.523348    -0.339741     0.472395
C      0.622940     0.910875     0.649771
O     -0.885588    -0.769049    -0.137850
O      0.754264    -1.476510     0.615222
O      0.659781     1.477934     1.939298
H      1.389069     1.170697     2.411413
H     -0.432268    -1.172657     0.930568
H     -1.603059     0.990784     0.419350
H      0.848638     1.685863    -0.109454
H      1.977062    -0.334682    -0.522431
H      2.308247    -0.385586     1.232895
