12

C     -0.137223    -0.300795    -1.062404
C      0.666393     0.027363    -0.009399
C      0.160125     1.179035     1.294184
O     -0.767491     0.473603     1.910191
O      0.231994    -0.835830     1.465592
O      1.298816     1.410310     1.987283
H     -0.504830    -1.385947     1.329501
H     -1.166142     0.046292    -1.083484
H      0.261391    -0.871458    -1.899693
H     -0.152111     2.108937     0.800316
H      1.436687     0.660436     2.557571
H      1.734692     0.065753    -0.119659
