12

C      1.148017    -1.046525     0.086924
C      0.796121     0.675479     1.375259
C     -0.595478     1.068623     1.718198
O      2.000874    -2.047359     0.143549
O      1.142929    -0.524014     1.929713
O     -0.815304     1.441941     2.852039
H      1.347058     0.273353     2.629166
H      0.097273    -1.302932     0.070197
H      1.503247    -0.386834    -0.686274
H     -1.321577     1.025227     0.861121
H      2.052633    -2.338762     1.027098
H      1.439209     1.389503     0.852809
