12

C      0.281412     1.038070     0.143108
C      1.139039    -0.216858    -0.940411
C     -1.021068     0.705491     2.022171
O     -0.374343     0.123139     0.965601
O      2.150232    -0.723436    -0.234673
O     -1.432873     1.826647     2.019092
H      1.743802     0.612254    -0.346975
H     -0.382919     1.617420    -0.504926
H      0.902209     1.715980     0.768997
H     -1.137188    -0.009791     2.834504
H      0.242948    -0.850358    -1.109260
H      1.311250     0.401243    -1.855429
