12

C      0.358846     1.198999    -0.259214
C      1.121627     0.062211    -0.693436
C     -1.006778     0.535422     1.895813
O     -0.568439    -0.005889     0.753350
O      2.251560    -0.269359     0.011225
O     -1.525474     1.624203     2.017699
H      2.942343     0.272281    -0.425158
H     -0.369859     1.630257    -0.925321
H      0.712121     1.895133     0.508123
H     -0.873547    -0.174834     2.734145
H     -0.642351    -0.197560    -0.173790
H      1.022452    -0.331064    -1.681637
