12

C     -0.338998     0.262041    -1.266372
C     -0.429148     0.278640     0.254035
C      0.934399     0.502341     1.722535
O      1.703670    -0.363114     1.317016
O      1.610235    -0.371378     0.069855
O      0.413940     1.200058     2.478828
H      2.276044    -0.936536     1.841493
H     -1.366630     0.406403    -1.651069
H      0.260071     1.091418    -1.654925
H      0.050729    -0.693417    -1.616607
H     -0.785614    -0.623529     0.743123
H     -0.924197     1.187072     0.567289
