12

C      0.058207    -0.161977    -0.657104
C     -0.311737     0.042290     0.704026
C     -0.259273     1.425608     1.107775
O      1.447834    -0.233646     0.438060
O      1.815908    -0.806671     1.544195
O      0.594517     2.197727     0.611837
H      2.448486    -0.217248     1.993702
H      1.261363     0.883832    -0.014313
H      0.114723    -1.183419    -1.034125
H     -0.955249     1.811633     1.855769
H     -0.280492     0.550022    -1.374675
H     -0.727388    -0.736851     1.341153
