12

C      1.661806     0.658273     0.036159
C      1.140717    -0.277388    -1.057500
C     -0.216838     0.976759     1.742559
O      0.784223     1.718275     0.241073
O     -1.011652     0.855937     0.868962
O      0.413441     1.019712     2.720393
H      1.851362    -1.100634    -1.245487
H      2.648205     1.074866    -0.265187
H      1.820580     0.093336     0.984799
H     -1.371677     0.621734     2.177127
H      0.181781    -0.710970    -0.760819
H      0.975752     0.277001    -1.986081
