12

C      0.704913     1.434453     0.427724
C     -0.489279     1.935900     1.217359
C     -1.126996     0.961026     2.193587
O      0.353809     0.610068    -0.655985
O     -0.600195     3.216676     1.575864
O     -0.764798    -0.164386     2.310094
H     -1.621979     2.558801     0.691529
H      1.267890     2.307195     0.070734
H      1.355210     0.875714     1.123152
H     -1.937521     1.399990     2.814270
H      1.185197     0.219710    -1.001479
H     -1.655651     1.938552     0.087850
