12

C      1.885074     1.427485    -2.335457
C      1.976274     1.034279    -0.928115
C     -0.310345     0.217996    -1.131663
O      0.560873     1.815631    -2.694011
O     -0.176024     1.917544    -1.554026
O     -1.078727     0.094175    -0.230895
H      0.312971     2.495129    -0.925014
H      2.187786     0.571927    -2.970287
H      2.587666     2.257917    -2.562079
H     -0.047444    -0.462464    -1.957918
H      3.007588     0.686603    -0.691065
H      1.483409     1.283477    -0.055170
