12

C     -0.270691     2.040807     1.948642
C      0.585816     0.962734     1.824911
C      0.252458    -0.219307     1.151742
O      0.159367     2.356615     0.055563
O     -0.710763     2.113534    -0.715346
O     -1.017249    -0.419406     0.622184
H     -0.062730     0.134269    -0.008138
H     -1.371816     1.892002     2.034057
H      0.084708     2.923227     2.485185
H      0.789366    -1.153432     1.324824
H     -1.669117     0.199900     0.883988
H      1.617352     1.062757     2.135190
