12

C     -0.466255    -1.167918     0.539599
C      1.393381     1.511979     0.089970
C      0.085678     1.065169     0.391557
O     -0.201147    -0.750407     1.833969
O      0.533659     0.332086     1.865665
O     -0.288047    -0.047844    -0.334542
H      1.688900     0.339759     1.349436
H     -1.510190    -1.496681     0.416033
H      0.225511    -1.971915     0.321352
H     -0.659949     1.796094     0.668491
H      1.902895     1.098174    -0.770529
H      1.686965     2.496505     0.440998
