12

C     -0.385545    -0.843715     1.510709
C      1.579908     1.669742    -0.163113
C      0.341562     1.322230     0.369263
O     -0.296224     0.575143     1.612147
O      0.715092    -1.365484     0.758466
O     -0.714004     0.961492    -0.224089
H      0.505464    -1.210250    -0.202230
H     -0.328824    -1.219736     2.535224
H     -1.348058    -1.139946     1.056175
H      1.372353     0.942503     1.086096
H      2.211626     2.432794     0.230706
H      1.897450     1.232329    -1.097956
