12

C     -0.137556    -0.409251     1.115586
C      1.347696     1.224316    -0.352297
C      0.096357     0.720678     0.267544
O      0.783805    -1.452938     1.073785
O      1.824562    -1.103097     1.874490
O     -1.098159     1.141914    -0.039802
H      1.824012    -1.838777     2.499862
H     -1.307104    -0.148274     0.392626
H     -0.493451    -0.159866     2.138936
H      1.530209     2.264934    -0.059232
H      2.200832     0.598590    -0.058424
H      1.244295     1.202273    -1.443372
