12

C      1.322763    -0.535821     0.145176
C      1.133490     0.459966     1.141429
C     -0.298845     0.561381     1.573951
O      0.809249    -1.780695     0.445108
O      0.904488    -0.009026     2.686928
O     -1.113178    -0.017760     0.866697
H      1.519121     0.523536     3.207684
H     -0.030653    -0.637969     0.024819
H      2.274179    -0.534680    -0.400392
H     -0.657943     1.380021     2.176082
H      1.108930    -2.475737    -0.162407
H      1.823599     1.294385     1.154722
