12

C     -0.484944     0.227167     0.334853
C      1.476982     0.856091     1.829001
C      0.875563     1.517195     0.631593
O     -0.008552    -0.731823     1.156820
O      0.699484    -0.260378     2.194643
O      0.960909     1.164823    -0.579323
H      0.453599     2.774223     0.385684
H     -0.711455    -0.160147    -0.651134
H     -1.314953     0.808550     0.785749
H     -0.231042     2.466677     0.849287
H      2.488198     0.527852     1.520492
H      1.559310     1.514871     2.698734
