12

C     -0.025702    -0.119574     1.164306
C      1.573000     1.243846    -0.551755
C      0.317215     1.040314    -0.002073
O      0.826762    -1.184437     0.784343
O      0.727477    -1.865928     1.915766
O     -0.753766     0.684030    -0.558199
H      1.478518    -2.235725     2.256926
H     -1.056967    -0.462310     1.273679
H      0.307811     0.414429     2.080189
H      0.340039     2.026655     0.599898
H      2.453013     0.953751     0.046392
H      1.628101     1.545746    -1.599771
