12

C     -1.257109     1.428342     1.608180
C      0.974236     1.579682     0.373330
C      0.144886     2.007521     1.583057
O     -1.497128     0.333997     0.862083
O      0.982843     0.203719     0.198387
O      0.553435     2.752750     2.445897
H      0.045396    -0.135964     0.270835
H     -1.840173     2.255566     0.622910
H     -1.813915     1.532672     2.532229
H     -2.202574     1.305223     0.309143
H      0.580229     2.114251    -0.508381
H      2.000276     1.915742     0.557230
