12

C     -1.067548     0.469372    -0.187990
C      1.128847    -0.378178     0.522441
C      0.587147     0.404262     1.608388
O     -0.209253    -0.256767    -0.817142
O      1.060420     1.695076     1.761954
O     -0.957334     0.704067     1.160416
H      2.026231     1.652002     1.840834
H     -1.670030    -0.253056     0.534999
H     -1.639402     1.251198    -0.713359
H      0.393858    -0.122146     2.556361
H      1.183913    -1.458016     0.608839
H      1.891253     0.069087    -0.109342
