12

C      1.168209     0.297869     0.036526
C      1.495775    -0.300991    -1.327365
C     -0.359064     0.994757     1.926033
O     -0.144267     0.772135     0.017757
O     -0.214419     2.144708     1.491465
O     -0.439043    -0.018514     2.397852
H      2.526778    -0.701836    -1.315670
H      1.852161     1.137986     0.282172
H      1.279024    -0.460495     0.846974
H     -0.490170     1.978052     2.763848
H      0.789981    -1.105244    -1.561363
H      1.412735     0.468272    -2.102129
