12

C     -1.217978     0.341662    -0.282061
C      1.168864    -0.488439     0.629424
C      0.592867     0.584409     1.365179
O     -0.231057    -0.217182    -0.867863
O      1.460035     1.651357     1.543928
O     -0.671939     0.732854     1.458219
H      1.145191     2.164801     2.312628
H     -2.079126    -0.233346     0.078399
H     -1.505943     1.371608    -0.536413
H      1.190645    -0.272496     2.136595
H      0.709444    -1.463645     0.701278
H      2.166998    -0.394584     0.227187
