12

C     -0.939116    -0.069796     0.565360
C      0.807987    -0.183885    -0.256180
C      1.405054     0.530889     0.865714
O     -0.791349     0.902022     1.427975
O      2.679497     1.032288     0.642431
O      0.668733     1.173527     1.742370
H      2.895840     1.557681     1.449527
H     -1.122747    -1.083841     0.949557
H     -1.596082     0.160989    -0.280291
H      1.336367    -0.573022     1.292477
H      1.364525    -1.069313    -0.606324
H      0.459193     0.441861    -1.085518
