12

C      0.448400     0.126437    -1.375409
C      0.522352     1.276003    -0.493914
C     -0.254698    -0.539993     0.964748
O     -0.179772    -1.097769    -0.283654
O      0.099478    -1.347030     1.999427
O     -0.014372     0.732261     1.108408
H     -0.116793    -0.863867     2.826894
H     -0.258523     0.157167    -2.206026
H      1.367687    -0.379784    -1.627420
H     -1.274331    -0.651052     0.225326
H      1.509539     1.612137    -0.184626
H     -0.190567     2.081292    -0.662456
