12

C      0.671338     1.924846    -0.085159
C     -0.124267    -0.813899    -0.045256
C     -0.060464    -0.707580     1.618287
O     -0.435838     0.329918    -0.507093
O      0.965071     0.138476     1.821118
O     -0.863919    -1.305532     2.277653
H      0.603882     1.010423     1.158217
H      1.498449     1.517647    -0.657822
H     -0.114529     2.309854    -0.739619
H      1.029346     2.618402     0.678335
H      0.848287    -1.218979    -0.365099
H     -0.933357    -1.550974    -0.191861
