12

C     -0.602878     0.127135     0.223209
C      0.686797    -0.608721    -0.002900
C      1.210895     0.638696     1.327948
O     -0.548523     0.608161     1.529809
O      1.537026     1.808304     0.697207
O      0.944469     0.331670     2.421282
H      2.464334     1.920257     0.654464
H     -1.489615    -0.527808     0.117557
H     -0.680062     0.975522    -0.481110
H      1.833862    -0.326230     0.903784
H      0.664643    -1.662106     0.304543
H      1.146950    -0.465479    -0.988692
