12

C      0.375163     0.914551     1.522598
C      1.807007     1.347300     1.625338
C     -1.306710    -0.077015     0.369771
O      0.013049     0.307132     0.362412
O     -0.232740     0.613923     2.627144
O     -2.041701     0.167587    -0.520928
H     -0.481708     2.250935     1.809599
H      1.873987     2.180692     2.336504
H     -0.393647     2.302591     1.027778
H     -1.582890    -0.705619     1.219299
H      2.188615     1.635362     0.641293
H      2.377975     0.504259     2.033794
