12

C     -1.395016     0.174167     0.686578
C      1.266315    -0.358586     0.287780
C      0.174723    -0.005619     1.329969
O     -1.035675    -1.016542     1.115538
O      2.296386     0.593824     0.255657
O      0.367125     0.484991     2.415277
H      1.952726     1.458229     0.213311
H     -1.942657     0.868915     1.325539
H     -1.251381     0.511575    -0.360006
H     -2.144546    -0.779666     0.526587
H      1.744819    -1.297978     0.634220
H      0.833982    -0.527508    -0.708454
