12

C     -1.492184     0.254913     0.651200
C      1.874238     0.578795     0.716696
C      0.683147     0.046098     0.137452
O     -0.929453    -0.167976     1.881399
O      0.204477    -0.796794     1.560197
O     -0.423020     0.880871    -0.031644
H      1.401517    -0.161167     1.768599
H     -2.267522     0.999675     0.814015
H     -1.905679    -0.585699     0.084490
H      0.758185    -0.774798    -0.587337
H      2.824541     0.235337     0.320326
H      1.814151     1.594345     1.104006
