12

C      0.740326     1.610316     0.250192
C     -0.462967     1.968066     1.117015
C     -0.977612     0.884629     2.044742
O      0.895376     0.301986    -0.184790
O     -0.598700     3.203430     1.504687
O     -0.893315    -0.289393     1.806334
H     -1.529155     2.714271     0.545691
H      0.690840     2.239088    -0.641058
H      1.613385     1.907735     0.851313
H     -1.492239     1.252652     2.953304
H      0.381692    -0.308308     0.396045
H     -1.697231     1.809030     0.211525
