12

C     -1.129280     0.123628     0.561005
C      1.481757    -0.327727     0.342276
C      0.207403    -0.010363     1.045419
O     -2.029944    -0.880611     0.908658
O      2.334716     0.772433     0.168882
O      0.154041     0.225938     2.328393
H      1.829909     1.546962    -0.093285
H     -1.035424     0.568467     1.970076
H     -1.318547     0.532607    -0.435009
H     -2.941509    -0.624426     0.587469
H      2.063424    -1.022009     0.962709
H      1.250252    -0.799098    -0.624592
