12

C     -0.339489    -0.723053     0.588328
C      0.795727     1.812929    -0.374892
C      0.328649     0.539010    -0.240528
O     -0.177297     0.028677     1.785541
O      1.112170    -0.314019     2.263447
O      0.575600    -0.527933    -0.915727
H      0.957323    -0.934231     2.969097
H     -1.380732    -0.746262     0.261565
H      0.095941    -1.742924     0.711062
H      0.622063     1.192975     0.909065
H      1.584704     1.967840    -1.102885
H      0.216741     2.651990    -0.042076
