12

C      0.765056     0.734044     1.806738
C     -1.079468     0.189996     0.575514
C     -0.470735     1.289046     1.434190
O      0.872296    -0.538737     1.407725
O     -0.247487    -0.902394     0.737583
O     -1.147176     2.185269     2.146882
H     -2.076873     2.212844     1.851976
H      1.283735     1.641610     0.433538
H      1.418865     1.072767     2.593168
H      0.641836     1.700653     0.093809
H     -1.097118     0.482651    -0.475549
H     -2.087832    -0.111950     0.901823
