12

C     -1.534341     0.286492     0.682790
C      1.959375     0.706522     0.660957
C      0.705789     0.131908     0.362733
O     -1.216200    -0.146824     1.880459
O      0.503187    -1.021772     1.138353
O     -0.398813     0.685176    -0.137255
H      1.120774    -0.410837     1.723911
H     -2.100050     1.245241     0.716688
H     -2.093712    -0.455192     0.087101
H      0.909119    -1.222155     0.039112
H      2.636020     0.877247    -0.179045
H      2.051253     1.427794     1.443594
