12

C     -1.475171     0.335565     0.695384
C      1.871516     0.469907     0.662542
C      0.679660     0.025482     0.056653
O     -0.943914    -0.262645     1.870852
O      0.224401    -0.795898     1.634362
O     -0.380646     0.926874     0.028519
H      1.252139     0.192052     1.816387
H     -2.196136     1.099360     0.994935
H     -1.972218    -0.391609     0.046713
H      0.638287    -0.786900    -0.676933
H      2.713594    -0.228435     0.640712
H      2.130885     1.519848     0.649373
