12

C     -1.023133    -0.095922     0.426501
C      0.778488    -0.019575    -0.050433
C      1.433455     0.314597     1.237820
O     -1.074208     0.742849     1.410142
O      2.564776     0.730643     0.377041
O      0.759822     1.199626     1.917490
H      2.885101     1.542659     0.747607
H     -1.165335    -1.179133     0.647267
H     -1.461473     0.198924    -0.551962
H      1.829367    -0.564131     1.779837
H      1.035957    -0.934906    -0.576298
H      0.605084     0.883769    -0.657914
