12

C     -0.162096     0.042851    -0.766831
C     -0.267414    -0.041517     0.645480
C     -0.082014     1.311144     1.265201
O      1.604926    -0.563681     0.475470
O      1.939005    -0.547905     1.687725
O      0.960572     1.924744     1.191965
H      2.341203     0.276958     1.981744
H      1.223121     0.232465    -0.342266
H     -0.227945    -0.886056    -1.329117
H     -0.976135     1.748281     1.764428
H     -0.476421     0.950317    -1.266862
H     -0.669902    -0.876301     1.209365
