12

C     -0.385808     0.522496     0.303856
C      0.411546     1.162885     2.528486
C     -0.089882     0.246943     1.691541
O     -0.370266     2.312636     0.153151
O      0.592969     2.698801    -0.396438
O      0.057692    -1.078085     2.007816
H      0.950501     0.864846     0.006488
H     -1.049614     1.863983     0.273989
H     -0.864250    -0.222328    -0.307470
H      0.293484    -1.578528     1.213872
H      0.712806     2.127884     2.168917
H      0.565723     0.959565     3.576390
