12

C      0.319448    -0.866537     0.302826
C      0.123736     1.365712    -0.356671
C      1.109601     1.085999     0.625559
O     -0.153022    -1.194501     1.446114
O     -0.059411    -0.049966     2.313947
O      1.542613    -0.159114     0.468241
H      0.184032    -0.540202     2.935564
H     -0.516674     0.036612    -0.077549
H      0.387642    -1.610587    -0.467084
H      1.658866     1.783590     1.251707
H      0.337816     1.151452    -1.400814
H     -0.543346     2.202543    -0.229839
