12

C     -0.759190     0.057479     0.513500
C      1.607489    -0.260296     0.271626
C      0.911143     0.928124     0.890219
O     -0.625894    -1.146936     1.004481
O      1.071942    -1.462743     0.403421
O      0.801439     1.000284     2.205239
H      0.692083     0.106502     2.475635
H     -1.394269     0.743737     1.099026
H     -0.969024     0.107283    -0.570659
H      1.186172     1.902334     0.445955
H      1.188851     0.299643    -0.654543
H      2.707658    -0.193712     0.260502
