12

C      0.576224     1.457213    -0.330858
C     -0.079512    -0.427428     0.002078
C      0.290808    -0.527841     1.702379
O     -0.679053     0.665724     0.362360
O      1.263081     0.279305     1.919479
O     -0.229945    -1.516829     2.265805
H     -0.403787     0.819904     1.430052
H      1.527551     1.038646    -0.669200
H      0.027231     1.925642    -1.144325
H      0.781660     2.155950     0.487308
H      0.824775    -0.908203    -0.305297
H     -0.815032    -0.709482    -0.758082
