12

C      0.240346     0.802698     1.888313
C     -0.270022     0.884593     0.480668
C     -0.835618    -0.365520     0.249111
O     -0.090934    -0.481486     2.333227
O     -2.701475     0.489683     0.424601
O     -0.758006    -1.145038     1.362490
H     -3.274773     0.615670     0.929022
H      1.336600     0.898105     1.962165
H     -0.237639     1.533760     2.557790
H     -0.964288    -0.889457    -0.679235
H     -2.076614     1.112872     1.136315
H      0.089027     1.529817    -0.299469
