12

C     -1.076988    -0.498517     0.482708
C     -0.180965     0.244270     1.076876
C      0.244892     1.281222     1.849511
O      0.547061     2.472489     1.302137
O      1.356888     2.486706     0.259016
O     -0.101254     1.348874     3.175189
H      1.050158     3.208673    -0.286676
H     -1.030883    -0.618367    -0.598485
H     -1.872830    -0.998416     1.027813
H      1.835621     0.453428     1.386868
H     -0.173274     2.280833     3.413741
H      1.346073    -0.152797     0.958502
