12

C      0.066726    -0.209145     1.189198
C      1.469121     1.342398    -0.432802
C      0.302469     0.809000     0.120070
O      0.959210    -1.290767     1.046855
O      0.718121    -2.108740     2.054112
O     -0.716547     1.461516    -0.358242
H      1.488336    -2.576373     2.240438
H     -0.977606    -0.567735     1.125430
H      0.216073     0.276097     2.174661
H      0.286570     2.306026    -0.436643
H      2.350389     1.504073     0.189880
H      1.652637     1.094351    -1.503257
