12

C     -0.686918     0.281269     0.991776
C      1.552442     0.726919     1.547524
C      0.178733     1.357839     1.643866
O      0.186484    -0.472862     0.184367
O      1.501361    -0.076113     0.365073
O      0.041144     2.452637     1.000960
H      0.894997     2.004492    -0.635081
H     -1.468825     0.735043     0.372658
H     -1.163556    -0.325712     1.770572
H      0.628731     2.454696     0.042102
H      2.358206     1.468928     1.442949
H      1.740302     0.098265     2.429736
