12

C      0.067444    -0.209070     1.189335
C      1.469039     1.343067    -0.433249
C      0.302786     0.808377     0.119624
O      0.958092    -1.291588     1.048188
O      0.718017    -2.109964     2.053909
O     -0.716507     1.460181    -0.359318
H      1.488128    -2.575224     2.240654
H     -0.977198    -0.566850     1.125913
H      0.216691     0.276617     2.174672
H      0.285495     2.306442    -0.436899
H      2.350159     1.504544     0.189546
H      1.653352     1.094266    -1.502674
