12

C      0.372688    -0.557874     1.520689
C      0.369807     0.759179    -0.395800
C     -0.060701     2.077567    -0.109987
O     -0.165354    -0.331703     0.243394
O      1.653240    -1.068630     1.427599
O     -0.973362     2.125843    -0.704225
H      1.625429    -1.827250     0.798396
H      0.409203     0.383513     2.097136
H     -0.296439    -1.259030     2.031892
H      0.218435     3.116755    -0.105213
H     -0.623014     1.203695    -1.401992
H      1.386567     0.622934    -0.796588
