12

C      0.479707     1.209594     1.545427
C     -1.343017    -0.346630     0.689188
C     -0.595608     0.428658     1.431205
O      0.863684     2.391646     1.277941
O      1.529770     2.452777     0.043565
O     -0.368760     1.070199     3.032673
H      1.172252     3.267288    -0.331564
H      1.961229     0.391092     1.483277
H      1.758024     0.011276     0.914792
H     -0.237280     2.021085     3.256242
H     -1.212822    -0.347428    -0.381901
H     -2.062781    -1.041158     1.086654
