12

C      0.364572    -0.393706    -1.011370
C      0.416073     0.801985    -0.421645
C      0.588214     1.151558     1.163443
O     -0.753365     0.731722     1.190089
O     -0.403638    -1.037799     1.930107
O      1.503987     0.513612     1.852446
H     -0.921721    -0.729842     2.666184
H      0.002510    -1.253475    -0.493079
H      0.700138    -0.517617    -2.042860
H      0.616161     2.263214     1.260501
H      0.575946    -0.669861     2.060213
H      0.373224     1.718111    -0.984132
