12

C     -0.359088    -0.861770     0.964146
C      1.620727     0.884370    -0.124302
C      0.802786     1.487464     0.999629
O      0.763556    -1.226541     0.380869
O      1.161371    -0.327916    -0.622409
O     -0.218553     1.018854     1.405688
H      0.746675    -0.335774     1.757214
H     -1.245909    -0.792939     0.335533
H     -0.730159    -1.123452     1.906973
H      0.974791     2.557105     1.184855
H      1.684069     1.608634    -0.947753
H      2.640832     0.709763     0.248955
