12

C     -0.014310    -0.549109     0.495263
C      0.593094     1.585213    -0.919657
C      0.750863     1.071067     0.268968
O      0.328217    -1.609893     1.350312
O     -0.137375    -1.244222     2.544594
O      1.272412     0.620587     1.256123
H      0.621865    -0.944617     3.081528
H     -1.026738    -0.194224     0.697476
H      0.198927    -0.936443    -0.504826
H      0.755904     1.741774     1.364061
H     -0.242205     1.326483    -1.545079
H      1.290647     2.338382    -1.276762
