12

C     -0.762862    -0.714656     0.990111
C      1.235552     1.880814     0.387830
C      1.204488     0.646673    -0.239880
O     -0.482736     0.116921    -0.115450
O      0.175349    -0.566048     2.035232
O      1.069816    -0.445535    -0.664749
H      0.976713    -1.034146     1.794990
H     -1.729783    -0.393610     1.394969
H     -0.852133    -1.757089     0.604220
H      2.381291     0.805167     0.009463
H      1.569706     2.800333    -0.005116
H      0.765300     2.018278     1.279879
