12

C     -0.825170     1.800340     0.825528
C     -1.676129     0.944244     1.580280
C      0.141944    -0.240575     1.750240
O      0.808436     0.718242     1.248060
O     -1.225307    -1.065490     0.160510
O     -1.003008     0.061982     2.382254
H     -0.544205    -0.849078    -0.497266
H     -0.788192     2.859122     1.059704
H     -0.533461     1.614426    -0.183839
H      0.593111    -1.151931     2.141910
H     -1.878166    -0.258084     0.277602
H     -2.550553     1.368701     2.076816
