12

C      0.140105     0.133858     2.044971
C      0.559765     0.927468     1.182417
C      1.078992     2.262142     1.062891
O      0.053899    -0.870340     2.726071
O     -0.243587    -1.902756     1.774100
O      0.135450     3.244380     0.682755
H      0.584621    -2.401165     2.014321
H      1.843997     2.248800     0.270870
H     -0.808228    -0.469950     0.589810
H      1.602078     2.499060     2.011486
H     -0.721032     3.060833     0.994522
H     -0.338860     0.331571     0.212085
