12

C     -0.657713     0.167360     0.368421
C      1.626320    -0.181155     0.199293
C      0.571610     0.877423     0.412457
O     -0.376358    -1.188965     0.352711
O      0.986276    -1.389874     0.516682
O      0.415341     0.973213     2.213526
H      0.817797     0.125377     2.611729
H     -0.627113     0.552971     1.790586
H     -1.526510     0.489884    -0.195931
H      0.729275     1.897689     0.066250
H      1.963821    -0.189680    -0.853711
H      2.495653    -0.052544     0.862386
