12

C     -1.032317     0.454814     0.122190
C      1.505787    -0.886764     0.690484
C      1.053966     0.591553     1.512729
O     -0.357485    -0.356308    -0.637920
O      0.429957    -1.371208     0.079139
O     -0.188559     0.892315     1.469917
H      1.709295     1.330074     1.033290
H     -1.918479    -0.025710     0.537703
H     -1.185971     1.485500    -0.224567
H      1.323737     0.288480     2.542001
H      1.849398    -1.489937     1.533173
H      2.294472    -0.589909    -0.021539
