12

C      1.426509    -0.527425     0.021054
C      0.629796     0.451192     0.833405
C     -0.524243     0.087241     1.566199
O      0.947106    -1.834926     0.021404
O      1.331899     0.731875     2.625753
O     -1.290404    -0.616937     2.097039
H      1.206145    -0.098270     3.146597
H      1.403877    -0.154762    -1.020309
H      2.470664    -0.549577     0.338092
H      0.372992     1.108870     2.285547
H      0.061372    -1.859752     0.424724
H      0.759686     1.490172     0.520395
