12

C      0.157574    -1.371855     0.474396
C      0.216906     1.947062     0.240741
C      0.950238     0.779338     0.039457
O      0.624844    -0.950420     1.758004
O      0.436876     0.316135     1.990324
O      0.275903    -0.279013    -0.422967
H     -0.223218     0.998391     1.580658
H     -0.875003    -1.685510     0.552983
H      0.798886    -2.175433     0.087411
H      2.029152     0.730691     0.142220
H     -0.749049     2.071580    -0.216440
H      0.748191     2.824034     0.585113
