12

C     -0.047474    -0.317038     0.779775
C      0.466891     1.466649     2.126575
C     -0.722236     1.938765     1.360056
O      0.949007     0.270485     1.574335
O     -0.838955     0.689212     0.182077
O     -1.705078     2.544240     1.650513
H     -0.106726     1.636644    -0.245011
H     -0.712025    -0.954040     1.378650
H      0.456479    -0.901879     0.013889
H      0.426743     2.236031    -0.076199
H      0.123383     1.279794     3.162569
H      1.248390     2.232336     2.115871
