12

C     -1.112666     0.495045     0.133687
C      1.083050    -0.237508     0.297038
C      0.453593     0.475023     1.843021
O     -0.080073    -0.258019    -0.418827
O      1.270363     1.498707     2.022252
O     -0.858707     0.744379     1.480819
H      1.364568     1.207384     0.941361
H     -2.028025    -0.110916     0.054390
H     -1.196055     1.436685    -0.423799
H      0.530497    -0.405982     2.507747
H      1.382521    -1.250513     0.595707
H      1.919134     0.182814    -0.266798
