12

C     -0.092783    -0.219932     1.080689
C      1.445368     1.168889    -0.808911
C      0.384057     1.102138     0.093273
O      1.250916    -0.737175     1.160438
O      0.909619    -1.807431     1.940109
O     -0.847282     1.105402    -0.028064
H      1.491227    -1.926089     2.676682
H     -0.775340    -0.986936     0.697202
H     -0.463194     0.163455     2.036583
H      0.881989     1.839849     0.831582
H      2.359220     0.642151    -0.515488
H      1.271601     1.696377    -1.754495
