12

C     -1.022464     0.482805    -0.200769
C      1.083243    -0.452985     0.435183
C      0.650663     0.401006     1.511842
O     -0.208171    -0.248219    -0.864245
O      1.291026     1.620375     1.548614
O     -0.832057     0.867562     1.094189
H      1.614958     1.850996     2.397024
H     -1.507466    -0.185627     0.744453
H     -1.681392     1.168727    -0.745029
H      0.424198    -0.088057     2.474538
H      1.007091    -1.531393     0.558284
H      1.908370    -0.108191    -0.187587
