12

C      0.231872     0.588138    -0.792422
C      0.237811     0.214851     1.460191
C     -0.368787     1.221908     0.663718
O      1.550828    -0.077480     1.482581
O      1.713056    -1.420437     1.284028
O     -1.581372     1.566049     0.589875
H      2.239249    -1.752035     2.009699
H      1.181585     1.105326    -0.963385
H      0.438789    -0.483880    -0.842998
H      0.487487     1.943799     0.802890
H     -0.586058     0.903685    -1.454016
H     -0.337660    -0.238624     2.276139
