12

C      1.617957     1.796101    -2.744300
C      1.361972     0.719943    -0.574937
C      0.245944    -0.187039    -0.859318
O      1.251334     2.719227    -2.082540
O      0.568141     2.689228    -1.014827
O     -0.932146     0.078963    -0.673995
H      0.162225     2.183159    -2.141298
H      1.276237     0.834543    -3.056573
H      2.653092     2.126993    -3.103575
H      0.601744    -1.185272    -1.274864
H      2.322567     0.297925    -0.871718
H      1.260031     1.265930     0.362247
