12

C     -1.116231     0.211999     0.085679
C      1.090943    -0.380435     0.288783
C      0.732039     0.600212     1.403980
O     -0.069072    -0.446166    -0.500486
O      1.639707     1.506373     1.600003
O     -0.494493     0.872086     1.733624
H      1.524477     2.131622     2.194987
H     -2.016962    -0.393223     0.097074
H     -1.314777     1.240699    -0.264912
H     -0.543299    -0.228512     1.763187
H      1.367070    -1.367581     0.665163
H      1.928699     0.029824    -0.300681
