12

C     -0.082828     0.244353     1.440204
C     -0.259123     0.620810     0.030456
C      0.547746     1.547231    -0.493601
O      1.151138     0.218469     1.882397
O      1.531397    -1.508497     0.897990
O      1.844578     1.765638    -0.212822
H      2.048317    -1.103267     0.238024
H      0.611621    -1.017548     1.479491
H     -0.784340     0.598775     2.198916
H      0.175249     2.221509    -1.263845
H      2.059367     1.346674     0.613246
H     -0.991923     0.119153    -0.582656
