12

C      2.051973    -1.003232     0.944028
C     -0.723294     1.733779    -0.883392
C      0.063951     0.707765    -0.155687
O      0.782529     0.978634     0.846089
O      1.507425    -0.911769     2.082916
O      0.160983    -0.455308    -0.324224
H      0.690267    -0.004763     1.735679
H      2.885466    -0.377047     0.627977
H      1.755170    -1.796141     0.271995
H     -0.140734     2.660098    -0.976370
H     -1.015897     1.345428    -1.867686
H     -1.619441     1.952954    -0.293224
