12

C     -0.019018     1.006281    -0.074959
C      1.138489     0.606132    -0.868766
C     -0.627152     1.029199     2.089483
O      0.367775     1.408263     1.221706
O      0.851830    -0.974628    -0.585001
O     -1.742619     1.384011     2.081430
H      1.392704    -1.303108     0.092305
H     -0.126338    -0.456031    -0.167496
H     -0.802737     1.642400    -0.492883
H     -0.199761     0.418644     2.881350
H      1.060221     0.674129    -1.953529
H      2.129107     0.804606    -0.461839
