12

C     -0.255318     0.563407    -0.934988
C     -0.589907     0.580630     0.467605
C      0.730656     0.967158     1.142325
O      1.716050     0.194689     0.593795
O      0.897521    -1.391250     0.443186
O      0.915607     1.810252     1.993741
H      1.471300    -1.932691     0.995405
H      0.945310    -0.237834    -0.533316
H     -0.893630     0.027241    -1.631235
H      0.165782     1.460222    -1.379505
H     -0.165371    -0.905510     0.705786
H     -1.533601     0.803684     0.942502
