12

C      1.174178     0.595299     0.141532
C      0.139649     0.148185    -0.875629
C     -0.243609     0.124819     2.351382
O      1.079931     0.145628     1.959077
O      2.290733    -0.073935     0.131072
O     -1.176554     0.367704     1.594557
H      2.037013    -0.134782     1.401134
H     -0.808166     0.687728    -0.766004
H      1.144706     1.666922     0.360354
H     -0.395116    -0.079246     3.422248
H     -0.036021    -0.925851    -0.778743
H      0.564758     0.359931    -1.867078
