12

C      0.026296    -0.515401    -1.234092
C      0.470113     1.244625     0.144345
C     -0.245753    -0.777999     0.935803
O     -0.349135    -1.372059    -0.217795
O      0.430915    -1.204699     1.845710
O     -0.651057     0.591962     0.919315
H      0.555140     0.062891     1.328394
H     -0.549403    -0.664216    -2.140439
H      1.104314    -0.483065    -1.461123
H     -0.918240     0.308634    -0.311544
H      0.879510     2.092096     0.728436
H      0.905699     1.823031    -0.245713
