12

C     -1.226108     0.309344    -0.303171
C      1.155070    -0.392965     0.704080
C      0.447847     0.616189     1.432918
O     -0.195001    -0.168876    -0.871181
O      1.086293     1.859242     1.585469
O     -0.807292     0.505822     1.535613
H      1.938222     1.771280     1.919985
H     -2.096667    -0.315077    -0.109501
H     -1.504320     1.370072    -0.438940
H      1.025202    -0.162100     2.242181
H      0.745085    -1.388511     0.718835
H      2.159768    -0.227521     0.350114
