12

C      0.524475     0.242519    -1.361438
C      0.316285     1.134532    -0.277936
C     -0.788246    -0.543519     0.506559
O     -0.134333    -1.183288    -0.407598
O      0.697534    -0.690822     1.506683
O     -0.872404     0.796915     0.346569
H      0.572681    -0.166247     2.308911
H     -0.216854     0.145861    -2.152682
H      1.536977    -0.022043    -1.653613
H     -1.635103    -0.951580     1.007122
H      1.133927     0.159050     0.708311
H      0.523462     2.184420    -0.239591
