12

C      0.241058    -0.688933     1.082032
C      0.696996     1.188867    -0.152911
C     -0.392654     2.217344    -0.182468
O     -0.701333    -0.087317     0.370877
O      0.826318    -1.772361     0.477814
O     -0.501320     3.118639     0.636080
H      1.124052    -2.467858     1.054149
H      1.125475     0.125514     1.008357
H      0.064343    -0.787751     2.189657
H     -1.082456     2.109891    -1.031860
H      0.868979     0.686710    -1.093815
H      1.647043     1.602255     0.247388
