12

C     -0.922899    -0.355184     0.471937
C      1.296878     1.219973    -0.426228
C      0.347487     1.580398     0.343915
O      0.384205    -0.863127     0.573733
O      1.524436    -0.129327     1.687943
O     -0.906503     1.073190     0.550782
H      1.274766    -0.749516     2.347368
H     -1.534161    -0.738496     1.292298
H     -1.301655    -0.637629    -0.512478
H      0.997962     1.193038     1.453299
H      1.106780    -0.151961    -0.115440
H      2.123904     1.763842    -0.855326
