12

C     -1.577859     0.206147     0.370053
C      2.007252     0.608678     0.790074
C      0.648866     0.018733     0.759564
O     -1.481035    -0.894597     1.148881
O      0.252410    -0.595007     1.851151
O     -0.261433     0.544352    -0.096726
H      2.745774    -0.164189     0.997072
H     -1.952703     1.071850     0.949759
H     -2.160182     0.058605    -0.540314
H      0.028192    -1.192483     0.776579
H      2.229266     1.081159    -0.172843
H      2.063853     1.360353     1.586148
