12

C     -0.060024     1.095333    -0.214599
C      0.954641     0.104838    -0.726853
C     -0.445959     0.588031     1.555054
O     -1.497710     0.374832     1.007826
O      2.184376     0.173284    -0.069919
O      0.552851     0.703593     2.173283
H      1.981742     0.201489     0.880661
H     -0.897119     1.209795    -0.899725
H      0.375995     2.048797     0.066360
H     -1.365456     0.294962     2.462562
H      0.512519    -0.910328    -0.690537
H      1.126842     0.355175    -1.782414
