12

C     -0.744484     0.072204     0.876004
C      1.718376    -0.319684     0.326916
C      0.963588     0.968746     0.708843
O     -0.466965    -0.935717    -0.004201
O      0.840268    -1.362890     0.078814
O      1.190518     1.543260     1.884906
H      0.170345     0.788835     1.765383
H     -1.131818    -0.349868     1.814060
H     -1.449660     0.817520     0.492130
H      0.635974     1.584528    -0.156059
H      2.304362    -0.136673    -0.589033
H      2.387796    -0.588659     1.146636
