12

C     -1.290012     0.071202     0.758188
C      1.539649     0.019174     0.040149
C      0.435986    -0.050544     0.922260
O     -1.793421    -1.092472     1.322491
O      2.659793     0.628371     0.426757
O      0.175575     0.585888     1.939571
H      2.475238     1.557295     0.554056
H     -1.729484     0.987751     1.161835
H     -1.303316     0.085374    -0.338120
H     -2.727048    -1.077925     1.025226
H      0.895837    -1.175408     0.864872
H      1.528000    -0.432907    -0.955287
