12

C     -0.008792    -0.162748     1.341496
C      1.193385     0.994178    -0.383892
C     -0.332337     0.715821     0.262761
O      0.729880    -1.280345     1.181111
O      1.887921    -1.160954     1.913182
O     -1.094833     1.716529     0.308322
H      1.842797    -1.906295     2.523397
H     -0.493300    -0.174123    -0.441407
H     -0.320725     0.044779     2.371806
H      1.306641     2.066292    -0.221631
H      2.011405     0.375123     0.008191
H      1.093461     0.812240    -1.453636
