12

C      0.096310    -0.379293     0.836815
C     -0.433449     1.401268     2.199060
C      0.381796     2.050936     1.111492
O     -0.724413     0.064771     1.880141
O      0.453304     0.696060     0.035032
O      1.302812     2.845053     1.113687
H     -0.367111     1.541998    -0.142620
H     -0.458382    -1.115755     0.260147
H      1.022528    -0.812499     1.223728
H     -0.567260     2.443499     0.052228
H     -1.363157     1.962446     2.351138
H      0.195221     1.423017     3.102055
