12

C     -0.149482    -0.282339     0.965252
C      1.117834     0.754019    -0.767892
C      0.341007     1.225658     0.325909
O      0.915546    -1.215321     1.068983
O      1.825106    -0.762331     1.906219
O     -0.639082     2.045419     0.298214
H      2.003128    -1.491622     2.496269
H     -0.933745    -0.656046     0.306464
H     -0.512239    -0.006990     1.958035
H      1.065687     1.380340     1.221968
H      2.024136     0.184675    -0.585356
H      0.757606     0.865038    -1.784366
