12

C     -0.390424    -0.842993     0.711410
C      1.795512     0.924258     0.121543
C      0.720887     1.254382     1.175813
O      0.785779    -1.146333     0.108687
O      1.384718    -0.154908    -0.665025
O     -0.468515     1.223213     0.769996
H      0.351683     0.048440     1.784280
H     -0.738862    -1.616970     1.354616
H     -1.276491    -0.536332     0.162843
H      1.010058     1.984489     1.928657
H      1.902165     1.785569    -0.541419
H      2.764388     0.674985     0.578198
