12

C     -0.221181     0.286733    -0.007046
C      1.130518     0.306279    -0.633068
C     -0.454161     0.578256     1.948004
O     -0.305058    -0.562188     1.172923
O      0.584902     0.768680     2.688904
O     -1.539757     1.145493     2.083015
H      0.965293    -0.077150     2.983207
H     -1.022813    -0.866133     0.524623
H     -0.940543     0.987158    -0.297977
H      1.702916     1.222609    -0.380055
H      1.024515     0.304963    -1.726373
H      1.707768    -0.574301    -0.329256
