12

C      1.353638    -0.876635     0.994970
C      0.467758     0.953011    -0.327261
C     -0.095361     1.297967     0.907802
O      0.167130    -1.522485     1.047860
O      2.109340    -0.832437     2.079182
O      0.604819     1.211161     1.953952
H      1.872845    -0.169672     2.681089
H      0.338767    -2.294817     1.618409
H      1.872054    -0.884340     0.036956
H     -1.179006     1.538620     0.955723
H     -0.115107     0.523503    -1.135473
H      1.379924     1.464025    -0.631208
