12

C      0.889854    -0.065263     0.522035
C      0.165628    -0.041833    -0.787368
C     -0.233001     0.813196     1.951786
O      0.404566    -0.780926     1.526282
O      2.255229     0.043851     0.323634
O     -1.378159     1.100238     1.705832
H      2.709532    -0.080909     1.182983
H      0.389228    -0.978067    -1.312321
H      0.621446     1.233013     1.083174
H      0.342889     0.814686     2.890077
H      0.512456     0.785667    -1.420260
H     -0.908068     0.038847    -0.591852
