12

C     -0.737610     0.273841     0.817886
C      1.586360    -0.376680     0.512685
C      0.627301     0.634567     1.097395
O     -0.294872    -0.564569    -0.710046
O      0.853451    -1.200283    -0.363198
O      0.936075     1.295882     2.187655
H      1.757634     1.818682     2.025921
H     -1.181974    -0.503490     1.427627
H     -1.427581     1.097450     0.612546
H     -0.110053     0.485074    -0.570443
H      2.418749     0.122397    -0.016001
H      1.990821    -1.001170     1.322373
