12

C      0.157004    -0.138629    -1.132385
C      0.246983    -0.025412     0.350556
C      0.412559     1.235849     2.022368
O      0.719562    -0.890553     1.128278
O      1.405776    -0.343602     2.154896
O      1.208943     2.066252     1.799527
H      1.834930     0.602558     1.228151
H      0.934190     0.444268    -1.640406
H      0.234033    -1.196016    -1.422450
H     -0.411219     1.224620     2.718281
H     -0.810043     0.252826    -1.493710
H     -0.725816     0.339138     0.803194
