12

C     -1.174492     0.379912     0.292944
C      2.018873     1.028635     1.686251
C      0.627247     0.481239     1.830039
O      0.088010     0.196118     0.536561
O     -1.930097     1.020150     1.039740
O      0.009928     0.311779     2.853599
H     -0.917297     2.466654     1.096738
H     -1.659847     1.876924     1.426225
H     -1.538622     0.096798    -0.679211
H      1.950232     2.113662     1.518480
H      2.545622     0.579099     0.839890
H      2.576444     0.890632     2.613343
