12

C     -1.356822     1.021848     1.578962
C      0.130728     0.705694     1.717283
C      0.947742     1.214292     0.560794
O     -2.143183     0.423073     2.385030
O      2.252826     1.272625     0.906120
O      0.471120     1.502614    -0.516744
H      2.754957     1.563729     0.113790
H     -1.443947     0.455931     0.039204
H     -1.512537     2.048844     1.192278
H     -2.023320     0.156703     0.845751
H      0.232074    -0.377398     1.816536
H      0.477864     1.171745     2.641295
