12

C     -1.327888     2.643108     0.471413
C     -0.355873     1.652433     0.434807
C     -2.463656     0.350034     1.891863
O     -2.696480     1.511012     1.939996
O      0.202565     1.237076     1.602222
O     -2.419031    -0.568879     2.584182
H      0.812267     0.520032     1.529450
H     -1.053772     3.676703     0.611098
H     -2.314132     2.548181     0.088703
H     -2.237359     0.242576     0.307819
H     -1.458099     0.438810     0.184591
H      0.274156     1.494813    -0.433546
