12

C     -0.221461    -0.075944    -1.053557
C      1.298288     0.383414     1.236608
C      0.016454     0.791263     1.547219
O     -0.453007     0.783296    -0.010161
O      1.753285    -0.640933     1.943000
O     -0.791434     0.354211     2.360324
H      2.627749    -0.904427     1.687528
H     -1.188187    -0.377798    -1.479119
H      0.340763    -0.969514    -0.737205
H      0.481793     1.799098     1.835403
H      0.340252     0.394442    -1.871871
H      1.929604     0.858092     0.482031
