12

C     -0.641926     0.422757     0.458300
C      0.376848     0.718762     1.538216
C     -2.844932     1.077728     1.541979
O     -1.816132    -0.021806     0.689456
O     -3.617404     1.559620     0.711261
O     -2.583916     1.041160     2.691166
H     -2.181833     2.086342     0.056478
H     -1.362437     1.979135     0.250027
H     -0.276719     0.208324    -0.552500
H     -0.082880     0.545533     2.510074
H      1.256706     0.073318     1.408228
H      0.760826     1.741926     1.503515
