12

C     -1.047445     0.196485     0.789125
C      1.501495    -0.706565     0.258086
C      0.637955    -0.032501     1.146376
O     -1.934199    -0.790502     1.073578
O      1.477206     1.138173     0.800495
O      0.222191    -0.227441     2.252886
H      1.380460     1.546705    -0.062570
H     -1.309575     1.141615     1.290390
H     -0.884730     0.301391    -0.330619
H     -2.793384    -0.482519     0.684144
H      2.387904    -1.196008     0.626524
H      1.228922    -0.783035    -0.806418
