12

C     -1.662373     0.224727     0.676013
C      1.960484     0.648353     0.827717
C      0.640857     0.052658     0.471532
O     -1.265089    -0.920024     1.323720
O      0.264424    -1.055811     1.226551
O     -0.336443     0.763209    -0.009862
H      1.832137     1.301332     1.700922
H     -1.999882     1.069751     1.307745
H     -2.355212     0.044939    -0.167806
H      0.462924    -1.150720     0.005260
H      2.687437    -0.138232     1.062407
H      2.313138     1.263718    -0.004700
