12

C     -0.282397     0.325953    -0.437263
C      0.953473    -0.063288    -0.994289
C     -0.314920     0.489861     2.282897
O      0.610007     0.477983     1.302276
O      0.154896     0.583780     3.531560
O     -1.525531     0.424889     2.102852
H      1.054263     0.279987     3.524890
H     -1.046566    -0.400562    -0.216021
H     -0.680427     1.313384    -0.655408
H      1.062987     0.711948     0.297841
H      1.319353     0.450896    -1.873924
H      1.327262    -1.074432    -0.838507
