12

C      1.404869    -0.486082     0.720088
C      0.342758     0.473702     0.282794
C      0.278020     1.719501     1.043941
O      0.434493    -1.723365     0.211261
O      1.623790    -0.695092     2.024639
O      0.437041     1.752053     2.260364
H      1.277551     0.094559     2.511901
H      0.643777    -2.462451     0.769483
H      2.310559    -0.618962     0.127088
H      0.080786     2.677841     0.505405
H     -0.299340    -0.878227     0.532454
H      0.242397     0.554623    -0.807518
