12

C      1.513210    -0.286716     0.591067
C      0.714917     0.617162    -0.206857
C      0.122919     1.195291     1.353396
O      0.501957    -1.684200     1.429512
O      1.474143     0.124896     1.868723
O      0.502543     2.278284     1.756039
H      1.086745    -1.104369     2.143912
H      0.071082    -2.338737     1.094440
H      2.365051    -0.866005     0.198665
H     -0.866713     0.738539     1.443019
H     -0.007792     0.247394    -0.926765
H      1.298740     1.486460    -0.563150
