12

C      0.866617     0.179718     0.739296
C      0.711434     0.916076     1.961933
C     -1.338203     0.721892     2.033293
O     -0.234570     0.092641     0.033666
O     -1.205728     0.930676     0.451272
O     -1.627288    -0.388326     2.477784
H     -0.026584     1.937554    -0.029111
H      0.682132     1.389069    -0.164864
H      1.512801    -0.701344     0.604986
H     -1.728719     1.716322     2.330508
H      0.514922     1.996940     1.927392
H      1.376785     0.653482     2.783644
