12

C      0.853472     0.240480     1.106948
C      0.315954     1.515787     0.968541
C     -0.707946     1.646618     2.092034
O     -0.572792     0.287193     2.535665
O      2.193236     0.161886     0.943281
O     -0.908541     2.648737     2.758669
H      2.480189    -0.655196     0.538456
H     -0.376994     0.247304     3.467480
H      0.406503    -0.727836     0.951516
H     -1.674606     1.007356     1.107369
H     -1.163558     0.987970     0.402273
H      0.916083     2.364502     0.625770
