12

C     -0.733042     0.398306     0.705802
C      1.655256    -0.255936     0.431580
C      0.691910     0.727712     1.031811
O     -0.384292    -0.946977    -0.245565
O      0.875141    -1.386487     0.077848
O      0.910770     1.477286     2.067565
H      1.706842     1.262981     2.584159
H     -1.351201     0.050063     1.539021
H     -1.287242     1.094655     0.059412
H     -0.253432     0.066311    -0.594564
H      2.152170     0.166933    -0.457439
H      2.435420    -0.573144     1.144668
