12

C     -0.456452     0.285416     0.251973
C     -0.193884     1.683260     2.134166
C      0.560304     0.633043     1.355191
O     -1.583986     0.014039     0.745201
O     -1.279076     2.085763     1.769073
O      1.791817     1.051396     0.851462
H      2.404147     0.312175     0.830200
H     -0.553923     1.852689    -0.379950
H     -0.059578    -0.146665    -0.666749
H      0.604055    -0.250688     2.029207
H     -0.443604     2.414865     0.130350
H      0.056379     1.868107     3.179477
