12

C      1.567558     1.220068    -2.228036
C      0.142159     0.428666    -0.552483
C      1.380318    -0.035392    -1.071168
O      0.633150     2.220679    -2.398828
O      0.841522     3.207970    -1.536201
O      2.472196    -0.307214    -0.448406
H      0.966520     3.990543    -2.065397
H      1.529348     0.614113    -3.165358
H      2.568018     1.590446    -1.940593
H      1.022036    -0.764919    -1.898121
H     -0.036897     0.571127     0.503942
H     -0.696928     0.603509    -1.235152
