12

C     -0.391615    -0.266768    -0.612359
C      1.384858     0.686349     0.878907
C      0.057582     0.450308     1.495246
O      0.731006     1.202444    -0.363046
O      2.173330    -0.410128     0.785750
O     -0.487414     0.099647     2.493574
H      2.371940    -0.688416     1.726930
H     -0.640115     0.189034    -1.561939
H     -1.303994    -0.586942    -0.091304
H     -0.021365     1.288162     0.504118
H      0.302479    -1.092533    -0.637111
H      1.957306     1.524040     1.321532
