12

C     -0.680563     0.466344     0.765289
C      1.638509    -0.300516     0.391349
C      0.699349     0.589342     1.125434
O     -0.426979    -0.985906    -0.211030
O      0.854123    -1.306625    -0.216759
O      0.991553     1.011878     2.376168
H      1.670623     1.710683     2.330334
H     -1.408552     0.194611     1.544889
H     -1.104581     1.161699     0.017250
H     -0.375208     0.095690    -0.488102
H      2.216261     0.252773    -0.362853
H      2.343767    -0.808375     1.072430
