12

C     -0.982299     0.733087     0.244431
C      1.584917    -0.762104     0.938198
C      1.391742     0.502482     1.590232
O     -0.586805    -0.207639    -0.790812
O      0.199512    -1.240085    -0.038915
O     -0.134137     1.483016     0.753839
H      2.037473     1.322385     1.331831
H     -0.817606    -0.702042     0.121383
H     -2.002211     1.099073     0.195714
H      0.952898     0.503218     2.578296
H      1.510462    -1.648055     1.559986
H      2.329752    -0.760436     0.152317
