12

C     -0.041464    -0.635034     1.072018
C      1.533193     1.100172     0.085854
C      0.474917     1.930006     0.400018
O     -0.625299     0.292802     1.338976
O      0.612957    -1.640325     0.516101
O     -0.483359     1.696751    -0.356259
H      0.108050    -2.156797    -0.090552
H      0.572016    -0.615726     2.086913
H     -1.086424    -1.004341     1.364290
H      0.481126     2.526687     1.317633
H      2.455850     1.252390     0.626652
H      1.549436     0.610517    -0.890145
