12

C     -1.521653     1.142949     1.418960
C      0.144920     0.481282     1.764037
C      0.909576     1.047641     0.585205
O     -1.304661     1.058172     2.661161
O      2.115361     1.510565     1.007751
O      0.529426     1.069241    -0.565045
H      2.549083     1.933881     0.254349
H     -1.372673     0.592851     0.062273
H     -1.885797     0.139285     0.683157
H     -2.034555     2.038565     1.045623
H     -0.045117    -0.583919     1.683475
H      0.703292     0.729088     2.679555
