12

C      1.359032    -0.599134     0.558016
C      0.745924     0.628047    -0.117318
C     -0.423088     0.319020     1.359339
O      0.111409    -1.221282     1.011259
O      2.273439    -0.281102     1.549194
O     -0.263716     0.776695     2.418679
H      1.886956     0.289982     2.203188
H     -0.260460     1.187304     0.606869
H      1.861596    -1.260890    -0.167762
H     -0.155322    -1.350415     2.000351
H      0.216277     0.428041    -1.063585
H      1.424654     1.491635    -0.176131
