12

C     -0.872461    -0.602884     0.624322
C      1.436668     0.812967    -0.095839
C      0.453247     1.335927     0.844657
O      0.368879    -1.221732     0.612818
O      1.400448    -0.495369     0.898297
O     -0.777475     0.866009     0.752817
H      0.980231     0.285691     1.801058
H     -1.438552    -0.930107     1.510898
H     -1.407220    -0.859549    -0.283907
H      0.619186     2.329742     1.260588
H      1.189242     0.480626    -1.065257
H      2.439007     1.203877    -0.048651
