12

C      1.986949     0.621661    -0.588349
C      1.021241    -0.308806    -1.233834
C     -0.745002     1.030431     1.779355
O      1.244321     0.098829     1.306890
O      0.545011     1.252810     1.556862
O     -1.256291    -0.019809     1.621596
H      1.387937    -0.149999     0.159368
H      1.788246     1.698426    -0.576268
H      3.048120     0.330519    -0.547710
H     -1.270742     1.963621     2.084159
H      1.138549    -1.363989    -1.009525
H     -0.010638     0.053206    -1.096344
