12

C     -0.129346    -0.505900     1.212000
C      1.058789     0.386622     0.865021
C     -0.678080     1.595693     1.719738
O     -1.176701     0.385848     1.703565
O     -1.221484     2.603643     2.228338
O      0.577568     1.690982     1.159726
H     -0.343134     3.447443     1.583163
H     -0.523017    -1.055865     0.349462
H      0.082463    -1.212400     2.028186
H     -0.340647     3.186690     0.500378
H      1.336756     0.319322    -0.192445
H      1.931035     0.186619     1.505568
