12

C     -1.036950     0.451410     0.062832
C      1.522818    -0.851970     0.643850
C      1.038287     0.554452     1.529631
O     -0.649991    -0.532515    -0.603221
O      0.467353    -1.576400     0.422368
O      0.294929     1.317929     0.805621
H      2.034629     0.992106     1.766121
H     -1.559268     0.219942     0.991996
H     -1.403011     1.339751    -0.473837
H      0.529717     0.117682     2.416605
H      2.272338    -1.277373     1.340108
H      1.972851    -0.432114    -0.265574
