12

C     -0.360079    -0.866797     0.962865
C      1.622105     0.884832    -0.123049
C      0.801731     1.493079     0.996978
O      0.764433    -1.225329     0.378380
O      1.154925    -0.323138    -0.624011
O     -0.211823     1.025165     1.412137
H      0.746814    -0.338726     1.764892
H     -1.246101    -0.803363     0.331295
H     -0.733989    -1.123384     1.904613
H      0.970720     2.564827     1.176163
H      1.693634     1.609258    -0.946216
H      2.638730     0.701379     0.255352
