12

C     -0.129852    -0.061377     1.508132
C      1.397968     1.390021    -0.012632
C      0.238989     0.614970     0.242404
O      0.143494    -1.454320     1.384623
O      1.475835    -1.619621     1.245599
O     -0.403721     0.576682    -0.870301
H      1.424176    -2.421831     0.693205
H     -1.207611     0.025703     1.692015
H      0.425202     0.381124     2.355053
H      0.689530     1.290998    -1.202054
H      1.403202     2.439392     0.349266
H      2.358291     0.879059     0.024389
