12

C      0.803673    -0.228377    -0.639673
C     -0.367963     0.095160    -0.050083
C     -0.188445     0.976916     1.215612
O     -0.013607    -0.084711     2.111697
O      0.595051    -1.085637     1.416513
O      0.934541     1.760209     1.211603
H     -0.590250    -0.975307     1.237120
H      1.726575     0.334720    -0.458618
H      0.809132    -1.038527    -1.363077
H     -1.017755     1.614724     1.473983
H      1.672540     1.203219     1.568940
H     -1.301195     0.005512    -0.554018
