12

C      1.266688     0.526070     0.132918
C      0.146927     0.144527    -0.823987
C     -0.319395     0.237586     2.296878
O      0.956958     0.192356     1.772742
O      2.332538    -0.227184     0.179031
O     -1.324568     0.312595     1.682810
H      1.941349    -0.264826     1.466008
H     -0.068237    -0.921276    -0.712674
H      1.407779     1.622006     0.194586
H     -0.314017     0.217132     3.396310
H      0.524298     0.332349    -1.836359
H     -0.778721     0.711166    -0.674265
