12

C     -0.390100     1.646708     2.602243
C     -1.718793     1.538878     2.098716
C     -1.438075    -0.045941     0.830436
O      0.608431     0.712568     1.126630
O     -1.155349    -1.086840     1.486364
O     -0.370704     0.484266     0.174996
H      0.485350    -0.280687     0.960548
H     -0.128070     0.985304     3.424220
H      0.184260     2.555018     2.440847
H     -2.379660    -0.000672     0.245296
H     -2.401933     0.920129     2.667522
H     -2.122956     2.377367     1.524979
