12

C     -0.470760     0.301611     0.467726
C      1.479694     0.718445     1.765870
C      0.711271     1.279611     0.556398
O     -0.162334    -0.782199     1.293867
O      0.810413    -0.433137     2.189735
O      1.265756     1.834343    -0.464893
H      0.350931     2.728872     0.072191
H     -0.591199    -0.035500    -0.564981
H     -1.416727     0.717987     0.848992
H     -0.228048     2.520321     0.916600
H      2.499712     0.449437     1.456336
H      1.514492     1.405207     2.618756
