12

C     -1.010027     0.262301     0.419644
C      1.589874    -0.634159     0.590907
C      1.536883     0.567241     1.355118
O     -0.404422    -0.632295    -0.540158
O      0.931660    -0.577093    -0.649930
O     -0.379169     0.268721     1.644735
H      1.290926     1.538190     0.927285
H     -2.036330    -0.115810     0.557985
H     -1.044143     1.246838    -0.085062
H      1.971618     0.548651     2.357019
H      0.606113    -0.825935     1.410995
H      2.430617    -1.323650     0.647961
