12

C     -1.128040     0.167553     0.082202
C      1.098078    -0.377903     0.330717
C      0.788428     0.576515     1.499286
O     -0.015507    -0.317658    -0.530800
O      1.709194     1.471779     1.791893
O     -0.406902     0.852460     1.850712
H      1.351394     2.375081     1.614926
H     -1.959034    -0.529515     0.017060
H     -1.406870     1.223899    -0.116981
H     -0.542158    -0.249624     1.776226
H      1.252315    -1.413947     0.641585
H      1.987300    -0.001539    -0.190227
