12

C      1.418710    -0.906456     0.689219
C      0.671936     0.577858    -0.024317
C     -0.190246     0.999647     1.001303
O      0.429454    -1.626283     1.093065
O      2.367229    -0.435942     1.590679
O     -0.259730     0.443482     2.140303
H      1.863699    -0.094431     2.340028
H     -0.191164    -0.645911     1.884941
H      1.919467    -1.236802    -0.246456
H     -0.910392     1.839929     0.865977
H      0.145783     0.233193    -0.918587
H      1.512154     1.259716    -0.234254
