12

C     -1.242027    -0.404292     0.325973
C      1.312397    -0.040815     0.043828
C     -0.017868     0.217827     0.668498
O     -2.032809    -0.884625     1.321386
O      2.337671     0.291783     0.923762
O     -0.129360     1.146671     1.622988
H      1.949611     0.771270     1.637891
H     -1.041018     1.142621     0.741513
H     -1.458667    -0.851699    -0.646190
H     -1.609857    -0.756141     2.198247
H      1.422666    -1.096771    -0.241185
H      1.376062     0.569971    -0.874711
