12

C      0.494643     0.088264    -1.265387
C      0.320225     1.155993    -0.291998
C     -0.929691    -0.303477     0.549362
O     -0.381789    -1.051109    -0.380602
O      0.578061    -0.413733     1.639397
O     -0.939391     1.019900     0.260394
H      1.296243    -1.039755     1.730231
H     -0.074079     0.059715    -2.198727
H      1.500904    -0.312585    -1.374983
H     -1.739915    -0.596732     1.181656
H      0.926685     0.309836     0.858220
H      0.606505     2.189483    -0.416464
