12

C     -0.602581     1.482669     2.494477
C     -0.204453     0.966044     1.192436
C      1.163491     1.120963     0.687329
O     -0.974023     0.672859     3.434055
O     -0.812602    -0.137758     0.691153
O      1.478303     0.942695    -0.473566
H     -0.735885    -0.101385    -0.282926
H     -1.432798     1.935208     1.353256
H     -0.201861     2.451658     2.794559
H      1.924637     1.347422     1.448841
H     -1.086898     1.042040     4.305112
H     -0.676728     2.451786     0.903872
