12

C      1.560020     1.863498    -2.327118
C      1.686002     0.555887    -1.034105
C      0.294450     0.014713    -0.953618
O      0.697199     1.825057    -3.173139
O      0.269899     2.921151    -1.517384
O     -0.631032     0.744983    -0.615458
H     -0.278494     2.217826    -1.188680
H      1.842016     0.706440    -2.410068
H      2.465916     2.460572    -2.187550
H      0.123443    -1.024858    -1.297134
H      2.481523    -0.210177    -1.091198
H      1.878156     1.264607    -0.240246
