12

C     -0.113672     0.115594     1.402763
C     -0.374417     0.608516     0.092146
C      0.582300     1.358770    -0.614763
O      1.577544    -0.058493     1.721103
O      2.065373    -0.979583     0.784959
O      1.765454     1.521739    -0.289242
H      2.437318    -0.472363    -0.009779
H     -0.365647    -0.925055     1.572407
H     -0.441545     0.735084     2.234215
H      0.251444     1.857390    -1.548190
H      1.805127     0.860919     1.258590
H     -1.338081     0.430782    -0.376409
