12

C      1.014597    -0.536001    -0.132859
C      0.226417     1.938442     0.604192
C     -0.096087     0.587645     0.560828
O      1.534051    -1.683395     0.455361
O      2.224050    -1.366246     1.558735
O     -0.183262    -0.320375     1.484173
H      1.543993    -1.146920     2.250387
H      1.839049     0.150189    -0.366989
H      0.430193    -0.830110    -1.008769
H     -1.080111    -0.194134     0.644430
H      0.776286     2.430049    -0.191534
H     -0.166577     2.499955     1.458245
