12

C      0.450364     0.099627    -1.317229
C      0.530900     1.288980    -0.495808
C     -0.327463    -0.528532     0.952417
O     -0.285649    -1.031304    -0.353790
O      0.097405    -1.357338     1.928849
O     -0.139580     0.765778     1.086875
H      0.131666    -0.819659     2.756692
H     -0.171295     0.152898    -2.216832
H      1.384453    -0.448595    -1.472980
H     -1.382738    -0.727967     0.248726
H      1.507868     1.595170    -0.117131
H     -0.137430     2.116840    -0.708292
