12

C      0.723556     0.395447    -0.087038
C      0.437530     1.035295     2.120617
C     -0.973037     1.232888     2.590543
O      0.559871     0.003439     1.121167
O      1.462299     1.406055    -0.139671
O     -1.205644     1.989189     3.490569
H     -0.298224     2.033953    -0.596347
H      0.375821     1.456570    -0.949723
H     -0.258638    -0.026084    -0.192008
H     -1.757406     0.643179     2.043314
H      1.053252     0.662683     2.947192
H      0.832521     2.000585     1.768183
