12

C      1.654499    -0.471328     0.613298
C      0.721063     0.529726     0.070127
C      0.023030     1.231938     1.201742
O      0.198307    -1.598182     0.460969
O      2.261481    -0.285635     1.792398
O     -0.213045     0.665006     2.257545
H      1.589448     0.101911     2.415291
H     -0.302406    -1.512257     1.315289
H      2.275634    -1.071301    -0.028148
H     -0.308022     2.268680     1.008155
H     -0.100316    -0.516531    -0.095012
H      0.977227     1.065972    -0.829753
