12

C      1.051337     0.465267     0.012215
C      0.387391     1.006580     2.164802
C     -0.976563     1.402682     2.654641
O      0.337547     0.071234     1.052141
O      0.232254     0.203036    -0.825190
O     -1.148439     1.942219     3.716476
H     -0.773309     1.653779    -0.504847
H     -0.106040     1.373470    -1.076251
H      1.930398     1.083548     0.093544
H     -1.841485     1.217880     1.980956
H      0.936915     0.484824     2.951611
H      0.921895     1.928579     1.896602
