12

C     -0.019425     0.115342     1.637177
C     -0.310934     0.700653     0.342556
C      0.847872     0.847783    -0.461274
O      1.227694    -0.324935     1.807049
O      1.642483    -0.543352     0.154758
O      1.674222     1.940686    -0.200438
H      2.395423    -0.614149     0.324438
H     -0.616663    -0.751950     1.163262
H     -0.541677     0.459650     2.533874
H      0.754707     0.653146    -1.523532
H      2.098882     1.862909     0.534740
H     -1.301387     0.707519    -0.084812
