12

C      1.661456     1.270762    -2.012616
C      0.711814     0.502627    -1.261100
C      1.154669    -0.841538    -0.883403
O      1.060460     2.841971    -1.217216
O      0.174775     3.152744    -2.200314
O      2.178543    -1.046172    -0.296507
H      0.265420     4.092647    -2.186666
H      1.530300     1.502039    -3.074434
H      2.697669     1.242580    -1.690715
H      0.496491    -1.700765    -1.099214
H      0.806954     1.745543    -0.616118
H     -0.349651     0.577060    -1.497395
