12

C      1.416275    -1.038393     0.853416
C      0.420303     0.516055     0.040940
C     -0.117025     1.422215     1.099206
O      0.108705    -1.161074     0.881917
O      2.184271    -0.562001     1.833457
O      0.400225     1.545994     2.182018
H      1.578452    -0.121477     2.444122
H      0.749339    -2.133160     1.178374
H      1.990578    -1.310105    -0.040983
H     -1.038614     1.990528     0.806114
H     -0.285534     0.346610    -0.779659
H      1.369826     0.912711    -0.316922
