12

C      1.398931    -0.584693     0.737935
C     -0.463291     1.727169    -0.866668
C     -0.200789     0.481449    -0.094052
O      1.411034     0.348924    -0.101837
O      1.387965    -0.371558     2.080403
O     -1.098680    -0.224666     0.333364
H      1.756777    -1.093108     2.518889
H      2.474414     0.088048     0.271096
H      1.343034    -1.590885     0.320843
H     -1.455846     2.111740    -0.567121
H      0.336431     2.458559    -0.684046
H     -0.491580     1.479621    -1.940705
