12

C     -0.613653    -0.686393     0.943391
C      0.804833     1.658565     0.624844
C      1.534099     0.574533     0.126094
O     -0.449708    -0.403355    -0.392618
O      0.414139    -1.102955     1.702413
O      0.824733    -0.182352    -0.790146
H      1.251432    -0.630271     1.256418
H     -0.558787     0.535732     1.376851
H     -1.427921    -1.360483     1.113135
H      2.616551     0.579187     0.098032
H      1.211897     2.369746     1.338319
H     -0.056915     2.005150     0.074769
