12

C     -1.004497     0.040463     0.621290
C      1.381948     0.062169     0.188574
C      0.492282    -0.255772     1.271750
O     -1.714796    -1.056174     1.060323
O      2.321785     0.978040     0.279818
O      0.605852     0.019113     2.527957
H      1.942674     1.840298     0.089636
H     -1.293567     0.980106     1.107781
H     -1.068901     0.118683    -0.481116
H     -2.637029    -0.830528     0.862387
H      0.616350    -1.399148     1.008470
H      1.224699    -0.391450    -0.814870
