12

C      0.828141    -0.695711     0.933375
C      1.008396     1.160595     0.178292
C     -0.516809     1.333551    -0.476211
O      0.383747     0.195781    -0.570533
O     -0.244138    -0.512373     1.787802
O     -1.535527     1.114749     0.166509
H     -0.991466    -0.128882     1.298244
H      0.818158    -1.617719     0.363418
H      1.784418    -0.602696     1.446150
H     -0.446655     2.007206    -1.352357
H      1.953732     1.467256    -0.346585
H      0.874304     1.523142     1.177196
