12

C     -0.790007     0.043376     0.091295
C      0.664067    -0.238892    -0.192599
C      1.360916     0.237220     1.091282
O     -0.956897     0.729264     1.178746
O      1.907326     1.503953     0.919420
O      0.358249     0.438973     2.055079
H      2.736020     1.399342     0.439404
H     -0.577974    -0.253767     1.699560
H     -1.452078     0.412254    -0.695551
H      2.064539    -0.474677     1.541439
H      0.833253    -1.313712    -0.356774
H      1.020488     0.336065    -1.064200
