12

C      1.151672    -0.931622     0.613220
C      0.183546    -0.020965     0.029063
C      0.513411     1.566705     1.055736
O      2.053927    -1.543337     0.074377
O      0.827478    -1.405730     1.956438
O      1.272423     1.970516     1.766076
H      1.646897    -1.159374     2.458133
H      0.206959    -0.714293     1.785651
H      1.664966     0.275925     0.425891
H     -0.177363     2.256154     0.631236
H     -0.820746     0.066586     0.451480
H      0.253531     0.047536    -1.065301
