12

C     -0.876218     0.126869     0.925505
C      2.060844    -0.160301     0.334482
C      0.979683     0.642592     0.307264
O     -0.688988    -0.816784    -0.010531
O      0.620057    -1.129037    -0.168943
O      0.448340     0.763300     1.952539
H      0.767193     1.474615     2.265454
H     -1.366457    -0.304227     1.797148
H     -1.389087     1.033477     0.617131
H      0.762261     1.324849    -0.447953
H      2.788792    -0.138477    -0.462535
H      2.311878    -0.735176     1.234838
