12

C     -0.747127     0.059542     0.326881
C      1.612570    -0.513959     0.529303
C      1.035727     0.745520     0.955637
O     -0.441361    -1.237644     0.168659
O      0.873227    -1.267504    -0.168513
O      0.812356     0.868185     2.308999
H      1.367482     1.646118     2.557758
H     -1.115349     0.356596     1.308354
H     -1.387862     0.430326    -0.454089
H      1.254314     1.707312     0.487351
H      0.649726     0.267562    -0.596959
H      2.504598    -0.980453     0.921017
