12

C     -0.355911    -0.094622    -0.584251
C      1.171459     0.759421     0.760327
C      0.041975     0.903183     1.746514
O      0.651462     0.739139    -0.497207
O      1.776720    -0.834893     0.736819
O     -1.071244     0.436114     1.547011
H      2.495192    -0.726543     0.110897
H      0.902268    -0.909173    -0.083221
H     -1.324959     0.353920    -0.824005
H      0.253823     1.493654     2.647898
H     -0.462970    -1.117339    -0.488375
H      2.056383     1.392341     0.867792
