12

C     -0.003187     0.646496     0.073443
C     -0.021706     1.926692     0.567936
C      0.396710     1.986516     1.967968
O      0.552388     0.165292     2.063066
O      0.125311    -0.092834     3.211720
O      1.195532     2.558142     2.665081
H      0.400719     0.369195     3.811596
H     -0.710108    -0.126433     0.279741
H      0.452306     0.473577    -0.892372
H     -1.431838     1.850035     2.264421
H     -1.348039     1.869492     1.483436
H      0.326911     2.777431    -0.034935
