12

C      0.103783     0.737797     0.172850
C      0.960253    -0.003693    -0.816894
C     -0.246048    -0.058261     1.984005
O      0.743200     1.167171     1.240160
O     -0.735105     0.590391     2.963167
O      0.176714    -1.203797     1.975691
H     -0.255066     1.380016     3.040458
H     -0.969830     0.076872     0.896559
H     -0.724111     1.358891    -0.267286
H      1.430764    -0.847000    -0.306413
H      1.736362     0.689674    -1.165614
H      0.411584    -0.367557    -1.689783
