12

C      1.180964    -0.557713     0.007920
C      1.232572     0.446806     1.046961
C     -0.104598     0.792379     1.511589
O      2.103478    -1.552123    -0.035692
O      0.643681     0.238242     2.690189
O     -1.020906    -0.223330     1.447378
H      0.434761    -0.583121     2.854421
H     -0.289134    -0.972125     0.756996
H      0.855610    -0.256021    -1.002358
H     -0.513243     1.793284     1.454842
H      2.165197    -1.928422     0.874650
H      2.106618     1.029644     1.253004
