12

C     -1.385181     1.268211     1.621546
C      0.792143     1.505045     0.322543
C     -0.015253     1.978382     1.527404
O     -1.503095     0.150481     1.062834
O      1.757460     0.572763     0.672093
O      0.337848     2.849895     2.281335
H      1.470681    -0.316578     0.471676
H     -2.219026     2.437214     0.715497
H     -1.971824     1.460442     2.520983
H     -2.031818     1.898602     0.191358
H      0.104921     1.118491    -0.442727
H      1.333748     2.370850    -0.089444
