12

C     -1.791905     1.201707    -0.446402
C     -0.720673     0.833871     2.271908
C     -0.458815    -0.309000     1.617916
O     -1.676593     1.806653     0.638143
O     -2.551146     0.130543    -0.750662
O     -0.826051    -1.432175     1.509160
H     -2.452572    -0.507272    -0.043945
H     -0.304718     0.346365    -0.160011
H     -1.587268     1.752176    -1.368233
H      0.263725     0.352233     0.370512
H     -1.414095     0.690567     3.102543
H     -0.142491     1.726731     2.344369
