12

C     -0.004455     1.212215    -0.544612
C      1.028820     0.280767    -0.792372
C     -0.553148     0.290379     1.859127
O     -1.031786     0.071952     0.592937
O      2.171321     0.282843    -0.041482
O      0.592462     0.652825     2.080199
H      1.843042     0.436148     0.890524
H     -0.801960     1.347003    -1.272229
H      0.177407     2.029446     0.153861
H     -1.220584     0.079644     2.698269
H     -0.001434    -0.349437    -0.063995
H      1.223016    -0.093985    -1.798527
