12

C     -1.267903     0.363413     0.279471
C      1.154382    -0.366387     0.333202
C      0.675910     0.422529     1.528107
O      0.584411    -0.447932    -0.852879
O      1.459032     1.578933     1.519781
O     -0.732114     0.651436     1.413582
H      0.947543     2.322626     1.828514
H     -2.287452    -0.001411     0.326279
H     -0.916636     0.985665    -0.316412
H      0.796931    -0.109174     2.486740
H      0.070782    -1.097612    -0.136089
H      2.243014    -0.525185     0.356304
