12

C     -1.059072     0.342416     0.064080
C      1.113229    -0.279576     0.394685
C      0.344254     0.711304     1.808141
O     -0.136063    -0.654640    -0.122532
O      1.007427     1.843795     1.821780
O     -0.988476     0.750006     1.403506
H      1.632698     0.831454     1.252441
H     -2.036688    -0.094340    -0.143296
H     -0.882405     1.231304    -0.567960
H      0.463357    -0.097551     2.554041
H      1.673573    -1.187600     0.641368
H      1.596265     0.380327    -0.339854
