12

C      0.953719     0.382074    -1.154535
C      0.290893    -0.007656    -0.033946
C     -0.579643     0.683627     0.987104
O     -1.031136    -0.532326     1.560382
O      0.791873    -1.124534     1.443376
O     -0.051289     1.530882     1.922192
H      1.061312    -1.009399     2.366466
H      1.194629     1.430608    -1.363076
H      1.237262    -0.312566    -1.936618
H     -1.437950     1.200715     0.530396
H      0.850329     1.481712     2.084602
H     -0.217598    -1.145136     0.763658
