12

C      0.228226     0.681980     1.768832
C     -2.256052     0.106107     0.415036
C     -1.765416     1.103092     1.152312
O     -0.063378     0.387632     3.050229
O      0.464464    -0.804146     3.173488
O     -1.893665     2.152714     1.730297
H     -0.265614    -1.308658     3.415341
H      0.326752    -0.114493     1.037968
H      1.104809     1.314081     1.779397
H     -0.697876     1.611764     2.304836
H     -1.726318    -0.218550    -0.459498
H     -3.217234    -0.341221     0.656562
