12

C      0.166057    -0.089717    -1.151440
C      0.718436     0.900596    -0.569812
C      0.250731     1.305557     0.816001
O     -0.947374     0.602291     0.932676
O      0.159871    -1.101092     1.437676
O      1.267214     0.930663     1.761325
H     -0.380397    -1.191392     2.103016
H     -0.746126    -0.359943    -0.140181
H      0.196189    -0.602671    -2.131006
H      0.101546     2.374547     0.985914
H      1.262506     0.070763     1.989886
H      1.013447    -0.261701     1.135843
