12

C     -0.713724     0.075520     0.785419
C      1.705023    -0.242941     0.240071
C      0.895289     0.946744     0.819436
O     -0.389423    -1.154559     0.376440
O      1.004565    -1.404188     0.440765
O      1.132113     1.208122     2.122414
H      0.197203     0.498156     1.897820
H     -1.384423     0.151168     1.645844
H     -1.196757     0.633098    -0.057024
H      0.660907     1.792052     0.141893
H      1.856943    -0.111742    -0.847007
H      2.650686    -0.309730     0.778329
