12

C      0.177666    -0.076355    -1.394580
C      0.505699    -0.039714     1.098559
C      0.369896     1.117564     2.105641
O     -0.530636    -0.387343     0.473463
O      1.403676    -0.986988     1.529025
O      0.234821     0.944991     3.276546
H      2.111907    -0.572203     2.063783
H     -0.862082     0.032867    -1.646506
H      0.563154    -1.076327    -1.476111
H      0.347690     2.127392     1.655083
H      0.810237     0.729100    -1.819231
H      1.002074     0.582218     0.074529
