12

C      0.551047     0.191771    -1.418720
C      0.415316     1.065968    -0.263063
C     -0.727823    -0.558800     0.568296
O     -0.621100    -1.147973    -0.544597
O      0.666357    -0.603313     1.482306
O     -0.810679     0.827782     0.428295
H      0.607306    -0.243039     2.383624
H      0.080312     0.431346    -2.366309
H      1.343031    -0.543215    -1.464837
H     -1.452168    -0.916345     1.288897
H      1.078839     0.475106     0.648050
H      0.528062     2.126613    -0.450441
