12

C      0.651777     0.746563     1.887517
C      0.241749     0.127342     0.721455
C     -0.300767     0.893502    -0.436882
O      1.527500     0.209761     2.619774
O      1.783162    -1.415551     1.376914
O     -0.277466     0.152446    -1.623803
H      2.420469    -1.432712     2.093004
H      0.220652     1.862497    -0.537300
H      0.198832     1.680303     2.228553
H     -1.358436     1.115044    -0.241092
H      0.651578    -0.133689    -1.795097
H      0.012653    -0.923106     0.780754
