12

C     -1.245178    -0.608771     0.381975
C      1.237119     0.006555     0.052846
C     -0.112089     0.143311     0.740955
O     -2.232422    -0.758861     1.200248
O      2.129006     1.000448     0.498508
O     -0.221426     0.696974     1.986940
H      2.486099     0.735167     1.344943
H     -0.545343     1.244489     0.796178
H     -1.378149    -1.156492    -0.546340
H     -2.028206    -0.350643     2.068059
H      1.651369    -0.992660     0.228109
H      1.126219     0.146382    -1.030523
