12

C     -0.087805    -0.417280    -0.716716
C      0.823786     0.463424    -0.249048
C      0.573217     1.075941     1.051491
O     -0.522836     0.637770     1.657906
O     -0.228234    -1.205188     1.223183
O      1.584171     1.529321     1.850524
H     -1.183604    -1.279034     1.388531
H     -1.130050    -0.175962    -0.845254
H      0.222377    -1.249594    -1.368548
H     -0.521490     1.796269     1.354978
H      1.726766     0.825251     2.523821
H      1.806005     0.576782    -0.700868
