12

C     -0.198223    -0.050568    -1.145602
C      0.598566     0.004123    -0.004842
C      0.764760     1.007548     0.910761
O      0.222363    -1.036371     1.255036
O     -0.752887    -0.645832     2.117893
O      1.505306     1.125334     2.002109
H     -1.183681    -1.381846     2.409703
H     -1.276492    -0.027801    -1.013585
H      0.205016    -0.234221    -2.131915
H      0.324414     1.916771     0.523805
H      1.170164     2.004475     2.298920
H      1.682994    -0.103713    -0.052384
