12

C     -0.483581     0.342623     1.547558
C      0.284704     0.329238     0.356394
C      0.677647     1.370923    -0.451058
O      1.595748    -0.234578     1.228762
O      1.583682    -1.397467     0.363426
O      1.694901     2.193903    -0.055895
H      2.470319    -1.238695    -0.017913
H     -0.756563    -0.570593     2.058141
H     -1.022507     1.198045     1.895138
H      0.222173     1.611929    -1.397560
H      2.002414     1.857292     0.805254
H     -0.417736    -0.409321    -0.104448
