12

C      0.654749    -0.079661    -0.838327
C     -0.345538     0.456059    -0.039234
C      0.033984     0.883530     1.317192
O     -0.378826     0.137520     2.260205
O      0.448277    -1.378381     1.358113
O      1.050694     1.734919     1.501481
H     -0.186071    -1.908296     1.792039
H      1.678033     0.242411    -0.699284
H      0.438015    -0.566823    -1.769656
H     -0.498647     1.648326     0.071831
H      1.485383     1.416698     2.316411
H     -1.317753    -0.008402    -0.100771
