12

C     -1.046067     0.303314     0.262487
C      1.193254    -0.371717     0.375239
C      0.748383     0.354677     1.662280
O      0.480816    -0.239185    -0.635258
O      1.255865     1.654422     1.597429
O     -0.675217     0.362708     1.603027
H      0.584721     2.252530     1.292268
H     -1.968117    -0.222155     0.092659
H     -1.049811     1.264166    -0.290111
H      1.063124    -0.139546     2.578459
H     -0.122138    -0.989104     0.034630
H      2.263387    -0.453007     0.193491
