12

C     -0.018408    -0.059747     0.964273
C     -0.524012     0.949046     0.041621
C      0.353108     1.847080    -0.533918
O      1.575054    -0.625023     0.642303
O      2.081119    -1.018299     1.885686
O      1.593903     1.794913    -0.350556
H      3.019349    -1.105722     1.837248
H     -0.506924    -1.032170     0.862890
H      0.103593     0.244070     1.998911
H     -0.064203     2.655236    -1.172238
H      1.815686     0.428758     0.280300
H     -1.576962     0.975058    -0.228821
