12

C     -0.014462    -0.544446     0.489939
C      0.594539     1.574959    -0.910013
C      0.752001     1.066063     0.285109
O      0.332240    -1.605531     1.337951
O     -0.133492    -1.231382     2.535499
O      1.282676     0.612960     1.261171
H      0.627968    -0.921961     3.070454
H     -1.028280    -0.190669     0.688934
H      0.198923    -0.926066    -0.511975
H      0.731830     1.733283     1.368904
H     -0.247031     1.316789    -1.528266
H      1.294388     2.320999    -1.275707
