12

C      0.038547    -0.291262    -0.966531
C      0.876335     0.328323    -0.096791
C      0.261005     1.198811     1.244578
O     -0.848450     0.464037     1.718114
O     -0.310761    -0.643366     2.282456
O      1.338646     1.093560     2.029459
H     -0.701125    -1.442090     1.879303
H     -1.036774    -0.327662    -0.775987
H      0.426256    -0.754112    -1.873558
H     -0.018173     2.195095     0.878504
H      1.241312    -0.016731     1.268538
H      1.795481     0.773100    -0.418087
