12

C      0.495375     0.271414     1.443642
C     -0.259505     1.532833     1.664927
C     -1.296938     1.979657     0.955444
O     -0.130739    -0.732616     2.210534
O      0.536364    -1.871781     1.960025
O     -2.374555     2.596067     1.046748
H      0.806319    -2.253958     2.781326
H      0.565011    -0.001014     0.383549
H      1.522925     0.351586     1.835860
H     -1.019097     1.544907    -0.383308
H     -1.434987     2.381243    -0.195540
H      0.013429     2.174961     2.492594
