12

C      1.510537    -0.712113     0.710864
C      0.834921     0.552873     0.140188
C     -0.179294     1.131307     0.917409
O      0.640781    -1.609308     1.317923
O      2.547917    -0.306594     1.571545
O     -1.207933     0.397092     1.066756
H      2.170430    -0.206960     2.459386
H     -0.128058    -1.151013     1.664607
H      1.991498    -1.262071    -0.106717
H     -0.304334     2.142002     1.274885
H     -0.483453     0.247707    -0.275326
H      1.383887     1.185078    -0.559619
