12

C      0.233939    -0.074074     1.040605
C     -0.141300     0.707120    -0.178689
C      0.200956     1.983944    -0.364430
O      1.335624    -0.905793     0.724481
O      1.702621    -1.446846     1.923778
O      1.476278     2.118588    -0.517082
H      2.621696    -1.240790     2.079391
H     -0.598502    -0.743360     1.297783
H      0.472376     0.557173     1.907971
H     -0.464505     2.829840    -0.480729
H      1.797002     1.068023    -0.318489
H     -0.784883     0.199375    -0.886888
