12

C      0.362049    -0.926098     0.375911
C     -0.013704     1.573011    -0.124338
C      1.070772     0.905265     0.364847
O     -0.225233    -1.061535     1.543638
O     -0.852852    -0.007901     1.646303
O      1.251061     0.501099     1.614835
H      0.514321    -0.344480     2.304110
H     -0.327007    -0.846870    -0.463511
H      1.208304    -1.555033     0.287713
H      2.043348     1.062851     0.006992
H     -0.582329     1.331103    -1.002695
H     -0.057430     2.573589     0.258193
