12

C     -0.206887     0.475744    -0.936483
C      0.554708     0.055520     1.079075
C     -0.039149     1.247294     0.618344
O      1.863127    -0.000483     1.354082
O      1.945531    -0.558226     2.619257
O      0.280947     2.445427     0.535120
H      2.586848    -1.264878     2.494485
H      0.510885    -0.246783    -1.332982
H     -1.199817    -0.017856    -0.849578
H     -0.924908     0.943198     1.277992
H     -0.148812     1.367947    -1.547697
H     -0.015673    -0.875505     1.204785
