12

C     -1.137482     0.427684     0.116824
C      1.257309    -0.446808     0.582775
C      0.802291     0.674758     1.282510
O     -0.298842    -0.554146    -0.394299
O      1.396194     1.771284     1.597685
O     -0.568859     0.604574     1.476788
H      0.902712     2.220373     2.323595
H     -2.163499     0.130613     0.323811
H     -1.057816     1.338434    -0.521354
H      0.107267    -0.711930     1.050379
H      1.520815    -1.347646     1.149973
H      1.967910    -0.330192    -0.222188
