12

C      1.843565     1.319983    -2.340230
C      1.749574     0.779996    -0.894922
C      0.265687     0.461447    -0.893537
O      0.512338     1.489934    -2.766049
O      0.056942     2.364692    -1.081655
O     -0.671265     0.113083    -0.315620
H     -0.469282     2.515663    -1.530979
H      2.336642     0.563112    -2.978459
H      2.399319     2.258355    -2.369061
H      0.041888     0.112802    -2.021205
H      2.329265    -0.141326    -0.724641
H      1.994426     1.501957    -0.119344
