12

C     -0.867801     0.591386     0.117743
C      1.491944    -0.893798     0.800038
C      1.050401     0.353687     1.584034
O     -0.130469    -0.216141    -0.701223
O      0.457052    -1.321997    -0.059560
O     -0.199772     0.426675     1.877606
H      0.634512     1.215810     0.755418
H     -1.812121     0.140254     0.444514
H     -1.016931     1.614023    -0.197214
H      1.778221     0.793153     2.274138
H      1.695469    -1.695181     1.520672
H      2.403292    -0.684972     0.220434
