12

C     -0.246328    -0.772174     1.379443
C      1.771381     1.233295     0.325114
C      0.460465     1.496246     0.131364
O     -1.148807     0.158863     1.158834
O     -0.026845    -1.770653     0.428246
O     -0.331489     0.724431    -0.476674
H     -0.321404    -1.306677    -0.390499
H      0.818758    -0.067908     1.347668
H     -0.223630    -1.212900     2.373469
H      0.121310     2.413415     0.594923
H      2.376093     1.832736     1.002613
H      2.301495     0.628427    -0.403003
