12

C      1.202986    -0.355061    -0.194829
C     -0.000018     1.742991     0.498069
C      0.318319     0.438640     0.755085
O      1.261387    -1.687382     0.303911
O      1.877085    -1.743950     1.444221
O      0.026448    -0.006332     2.018986
H      1.415094    -1.176499     2.101007
H      2.213355     0.073223    -0.208718
H      0.776058    -0.337050    -1.205209
H     -0.805244     0.002632     0.992842
H      0.129575     2.188486    -0.480388
H     -0.352444     2.389401     1.291223
