12

C     -0.554671    -0.888256     1.329441
C      1.550033     1.145289    -0.484710
C      0.900001     1.137935     0.767509
O     -1.090984     0.351333     1.574136
O      0.763100    -0.771525     0.907538
O     -0.416904     1.361605     0.799240
H      1.114922    -0.296813    -0.111265
H     -0.576107    -1.474675     2.266518
H     -1.181106    -1.366848     0.567502
H      1.472045     1.340620     1.679542
H      2.611875     1.408006    -0.467190
H      0.958596     1.410428    -1.356862
