12

C     -1.088924     0.020081    -0.086342
C      1.030887     0.081535     0.194005
C      0.652054     0.806841     1.378673
O      0.121708    -0.174100    -0.663887
O      1.409105     1.813788     1.861723
O     -0.619360     0.645256     1.646793
H      2.320143     1.455251     1.989284
H     -1.803010    -0.766426    -0.253317
H     -1.467990     1.008600    -0.324523
H      0.185643    -0.171017     2.201165
H     -0.025891    -1.035551     1.071982
H      2.013735     0.092642    -0.249154
