12

C     -0.733352    -0.773003     0.966547
C      1.203711     1.742184     0.581363
C      1.473870     0.407257     0.191345
O     -0.733769    -0.054623    -0.259106
O      0.384812    -0.577575     1.714298
O      0.553183    -0.033158    -0.736555
H      1.327225     0.220136     1.457584
H     -1.613586    -0.433984     1.550939
H     -0.849457    -1.842271     0.700871
H      2.488276     0.000697     0.070916
H      1.272197     2.348933     1.441507
H      0.777591     2.352508    -0.208209
