12

C      0.689322     0.117387    -1.175542
C      0.651030     1.296339    -0.384040
C     -0.670475    -0.482735     0.801068
O     -0.188126    -0.911543    -0.703115
O     -0.014264    -1.308447     1.643693
O     -0.415636     0.826851     0.891612
H      0.579497    -0.781364     2.231742
H     -0.557557    -0.268982    -1.556037
H      1.595896    -0.291617    -1.627763
H     -1.714941    -0.797663     0.814206
H      1.566002     1.545545     0.141350
H      0.137752     2.162129    -0.785673
