12

C     -1.517125     0.268655     0.251561
C      1.899365     0.572332     0.777528
C      0.631095    -0.245840     0.689488
O     -1.753791    -0.420713     1.330779
O      0.086193    -0.530841     1.889051
O     -0.312175     0.553148    -0.120853
H      2.669478    -0.010504     1.299458
H     -1.683995     0.559648     1.618532
H     -2.226968     0.222710    -0.564557
H      0.803039    -1.183232     0.125890
H      2.256589     0.833666    -0.221489
H      1.690696     1.484571     1.344012
