12

C      0.431811     1.218158     1.889057
C     -1.063805     1.499292     1.745043
C      1.388894    -0.126576     0.143072
O      0.715828     0.034756     1.215618
O     -1.592339     2.402443     2.513528
O      1.180646    -1.127712    -0.515391
H     -1.400517     2.509342     1.030270
H      0.644946     1.057181     2.948311
H      1.002991     2.077800     1.523137
H      2.175822     0.628826    -0.017389
H     -0.865939     2.054337     0.214103
H     -1.666537     0.605253     1.427142
