12

C      0.041859     0.168819    -1.417784
C      0.932790     0.203589    -0.440368
C      0.603665     0.158353     0.983233
O      0.088134    -0.965603     1.430707
O     -0.682304     0.061580     2.668437
O      1.553037     0.771443     1.789220
H     -1.314695    -0.568285     2.831316
H     -0.992162    -0.103315    -1.234617
H      0.326964     0.394698    -2.449704
H     -0.726906     0.640432     1.633546
H      1.227175     1.630576     2.035097
H      2.004745     0.185613    -0.659186
