12

C     -0.087954     0.409880     0.162817
C      0.652667     1.261254     2.345056
C      0.403956     0.216555     1.509711
O     -0.270107     2.720958     0.194758
O     -1.288328     2.709584     0.691117
O      0.653966    -1.039808     2.029211
H     -1.053396     1.628652     0.221063
H     -0.636410    -0.434915    -0.252883
H      0.655781     0.744181    -0.567966
H      0.236991    -1.694871     1.447716
H      0.600712     2.295078     2.066925
H      0.956921     1.064950     3.373175
