12

C      0.479180     0.019358     0.159475
C      0.750386     1.306608     0.937879
C     -0.383006     1.315618     1.958976
O     -0.646738    -0.577208     0.730513
O     -0.504699     2.099052     2.940780
O     -0.957480     0.046302     1.917036
H     -1.485162     2.161122     1.689359
H      0.266121     0.225090    -0.893871
H      1.305298    -0.698313     0.251257
H     -1.657597     1.932994     0.876937
H      0.762939     2.203811     0.309571
H      1.701458     1.246167     1.479686
