12

C      0.491620     0.839184     0.581463
C     -0.129242     0.513574     1.916620
C     -1.060549     1.634370     2.319569
O     -0.183760     1.406955    -0.386061
O      1.773313     1.050270     0.577180
O     -1.630642     1.626889     3.372561
H      1.999576     1.603488    -0.212150
H     -0.741772     0.307417    -0.747363
H     -0.518010    -0.290766    -0.308063
H     -1.159429     2.447361     1.571020
H     -0.713605    -0.413035     1.922268
H      0.659901     0.433792     2.673256
