12

C     -1.708581     0.251765     0.536509
C      2.005547     0.590474     0.800360
C      0.645087     0.002783     0.574133
O     -1.420508    -0.600785     1.533197
O      0.187861    -0.816687     1.593668
O     -0.247649     0.619900    -0.131427
H      2.669585    -0.132666     1.294323
H     -2.062718     1.255391     0.817346
H     -2.244283    -0.184069    -0.333120
H      0.386395    -1.272162     0.453965
H      2.434540     0.908346    -0.152434
H      1.897124     1.481310     1.432881
