12

C     -0.606442    -0.353141     0.230520
C      0.696106     0.083967    -0.267109
C      1.504051     0.532472     0.787244
O     -0.541610     0.616521     1.732547
O      2.793792     0.900906     0.586788
O      0.696359     1.332507     1.638711
H      3.036066     1.408253     1.423596
H     -0.803302    -1.304627     0.734972
H     -1.482753    -0.000847    -0.282964
H      0.632918     0.032681     1.850618
H      0.440101    -1.014746    -0.498903
H      0.802614     0.585454    -1.228923
