12

C      0.609262     0.647008     0.551597
C      0.409888    -0.121351    -1.201323
C      0.061019     0.057463     2.667755
O      0.041662    -0.352950     1.373021
O      1.784679     0.361531    -0.001692
O      0.677986     1.017526     3.048758
H      1.793577     0.988885     1.083369
H      0.983100     0.222705    -2.059029
H      0.034839     1.587913     0.539940
H     -0.507109    -0.572816     3.345346
H     -0.605888     0.234321    -1.280187
H      0.488385    -1.187836    -0.993857
