12

C      1.049053     0.244416     1.352050
C     -0.241763     0.190984     0.823967
C     -0.933481     0.971597    -0.108967
O      1.265617    -0.616136     2.401539
O      2.618094    -0.765570     2.538143
O     -0.227228     0.283713    -1.552178
H      2.628725    -1.463626     3.226214
H     -0.727150     2.034066    -0.265578
H      1.861921     0.929741     1.115770
H     -1.990276     0.776764    -0.313298
H      0.691852     0.576953    -1.609367
H     -0.223863    -0.280504    -0.534497
