12

C      1.217199     0.900104     1.940980
C     -0.259958     0.631387     0.052521
C      0.179627     0.184280     1.356439
O     -0.197140     2.889790     1.146833
O     -1.010272     2.587842     0.645749
O     -0.748021    -0.463718     2.161561
H     -1.584086     0.085257     2.092614
H      2.145352     1.054084     1.393044
H      1.183633     1.078873     3.010170
H      0.663563    -0.467480     0.384336
H      0.420170     1.164438    -0.602027
H     -1.185066     0.236641    -0.361722
