12

C      1.280086     1.897140    -2.191469
C      0.498934     0.570283    -1.307297
C      1.344336    -0.561019    -0.800770
O      0.484853     2.543431    -2.937418
O      0.973998     3.164719    -1.143020
O      2.488608    -0.454225    -0.535630
H      1.317690     3.873859    -1.517396
H      1.080651     0.687364    -2.537544
H      2.349582     1.787325    -2.070451
H      0.863187    -1.561668    -0.728180
H      0.137439     1.129210    -0.447655
H     -0.430364     0.263182    -1.818972
