12

C      0.360708     1.076598     0.586029
C      0.084705     0.658340     1.977480
C     -1.142014     1.300646     2.573684
O     -0.645074     1.309032    -0.162982
O      1.571447     0.788346     0.102655
O     -1.374290     1.270989     3.753818
H      2.001658     1.550498    -0.309261
H     -0.568512    -0.053345    -0.613519
H     -0.551086     0.995313    -1.077220
H     -1.816291     1.815253     1.854084
H     -0.075918    -0.436263     1.976982
H      0.942267     0.883996     2.618748
