12

C      1.487320    -0.464559     0.427862
C     -0.414763     1.415072    -0.884307
C      0.183616     0.746450     0.333514
O      1.635477     0.812502     0.482307
O      1.171134    -1.486536     1.166393
O     -0.468282     0.543468     1.385107
H      0.419110    -1.191815     1.679692
H      2.044611     0.543784     1.373980
H      2.075857    -0.794744    -0.428355
H      0.246726     2.198043    -1.277488
H     -0.602128     0.676618    -1.679140
H     -1.380178     1.832318    -0.571463
