12

C      0.305884    -0.773011     0.705168
C      0.556257     1.901842    -1.020324
C      0.976217     1.513386     0.190537
O      0.864885    -1.633964     1.560807
O     -0.603778    -1.392907     2.434238
O      0.481116     0.497243     0.939275
H     -0.259646    -1.738579     3.264620
H     -0.523835    -0.322757     1.462934
H      0.068983    -1.078530    -0.323738
H      1.762751     2.094471     0.694640
H      0.098812     1.217814    -1.709324
H      0.663652     2.919992    -1.386833
