12

C      0.217090     0.044730     2.224430
C      0.273211     1.026278     1.419784
C      0.873161     2.328881     1.274253
O      0.409649    -1.089334     2.639773
O     -0.016041    -1.827849     1.464318
O      0.883683     2.776895    -0.054337
H      0.867680    -2.192595     1.275795
H      1.904294     2.262464     1.666791
H     -1.370364    -0.136969     1.408153
H      0.302711     3.053374     1.871207
H      0.620272     2.060332    -0.636243
H     -1.078348     0.757593     1.012473
