12

C     -0.609079     0.340087     0.678926
C      1.617339     0.686214     1.418598
C      0.321629     1.459948     1.140452
O      0.253561    -0.682941     0.251984
O      1.399914    -0.603748     0.961223
O     -0.052045     2.528786     1.770520
H      0.353447     2.577830     0.424446
H     -1.282321     0.656266    -0.122156
H     -1.199478     0.018019     1.547820
H      0.683884     1.927269    -0.282474
H      2.474180     1.097424     0.868818
H      1.801968     0.699946     2.498342
