12

C      0.775514     0.335414     1.624075
C      0.128182    -0.077107     0.541859
C     -0.348865     0.853398    -0.538385
O      1.251642     0.447287     2.723335
O      1.563615    -1.076037     2.231716
O     -0.296756     0.208832    -1.784793
H      2.478151    -0.976396     1.745599
H      0.227735     1.795332    -0.551373
H      0.846722     1.386496     2.964040
H     -1.400082     1.113886    -0.358568
H      0.659287    -0.002523    -1.925897
H     -0.113444    -1.126179     0.402189
