12

C     -0.405636    -1.273264     0.984977
C      1.804196     1.004764     0.035311
C      1.193521     1.899911     0.970164
O      0.924228    -0.803247     1.023605
O      1.197872    -0.223281    -0.161094
O      0.065329     2.182298     0.378193
H     -0.605668    -1.696610     1.987739
H     -0.534849    -2.055416     0.225953
H     -1.059970    -0.400118     0.742046
H      1.511401     2.333024     1.916607
H      0.859308     1.773563    -0.660392
H      2.891169     0.856175     0.046492
