12

C     -1.272290     0.938259     1.485998
C      0.156596     0.785816     2.015571
C      1.016036     0.597837     0.798654
O     -1.621885     2.204422     1.237578
O      1.785736     1.639628     0.472165
O      0.943011    -0.430532     0.119610
H      2.125293     1.506316    -0.442115
H     -1.247991     0.423505     0.175315
H     -2.043754     0.312994     1.965441
H     -1.707667     1.592473     0.210083
H      0.224943    -0.100686     2.661720
H      0.429571     1.689568     2.580378
