12

C      0.442277    -0.023404     1.033887
C      0.542524     1.011269     1.779372
C      0.568398     2.441556     1.483094
O      0.834482    -1.230547     0.937940
O     -0.154697    -1.887878     1.677735
O      1.609612     2.782058     0.621995
H      0.361836    -2.151505     2.451769
H      0.771333     2.971735     2.428184
H     -1.161075    -0.101503     0.770633
H     -0.402388     2.798070     1.092849
H      1.549814     2.196113    -0.180802
H     -1.075016     0.258036     1.469542
