12

C      0.624208     0.818388     1.822940
C     -1.070537     0.087705     0.445142
C     -0.613534     1.268809     1.267109
O      0.924877    -0.394033     1.401777
O      0.032079    -0.759144     0.370855
O     -1.488296     2.125455     1.795943
H     -1.124357     2.466621     2.623477
H      1.118797     1.666721     0.558912
H      1.090072     1.134069     2.746035
H      0.570605     1.614820     0.042915
H     -1.409957     0.381163    -0.548854
H     -1.879057    -0.454577     0.981547
