12

C      0.567173    -0.104851    -1.105949
C      0.568763     1.259407    -0.692865
C     -0.581405    -0.459693     1.042462
O     -0.380828    -0.855943    -0.652706
O     -0.037197    -1.478259     1.773321
O      0.016194     0.673595     1.226850
H      0.279058    -1.089020     2.618001
H      0.274102     0.613299    -2.124977
H      1.541754    -0.528553    -1.393947
H     -1.670041    -0.543202     0.973763
H      1.468095     1.853299    -0.765657
H     -0.387168     1.765822    -0.606796
