12

C     -0.070805    -0.539413    -0.566733
C      1.331544     0.835706     0.580454
C      0.100665     0.824078     1.526416
O      0.642519     0.559944    -0.689630
O      2.181659    -0.183099     0.917731
O     -0.418726    -0.290417     1.745001
H      1.661268    -0.900580     1.302500
H     -0.492137     0.809923    -0.323246
H     -1.083713    -0.735450    -0.754513
H     -0.079827     1.720368     2.119738
H      0.485094    -1.478307    -0.376062
H      1.876460     1.772448     0.458544
