12

C      0.539257     1.425562     1.909078
C     -0.949778     1.390127     1.587942
C      1.302075    -0.051555     0.277435
O      1.393226     1.194992     0.781957
O     -1.762869     2.173517     2.228438
O      0.594061    -0.946518     0.684850
H     -1.564334     2.198403     0.813041
H      0.719468     0.636079     2.651362
H      0.780438     2.409937     2.315973
H      1.977608    -0.125782    -0.582404
H     -0.818220     2.160438     0.210208
H     -1.258931     0.368000     1.238919
