12

C     -0.008742     0.075453     1.628674
C     -0.307662     0.696629     0.367135
C      0.866421     0.873739    -0.445831
O      1.247074    -0.351701     1.806957
O      1.621554    -0.507639     0.082163
O      1.715387     1.918832    -0.129450
H      2.404802    -0.528537     0.246156
H     -0.566204    -0.767325     1.000717
H     -0.591945     0.312574     2.527845
H      0.745725     0.737299    -1.516948
H      2.031629     1.833055     0.706147
H     -1.306839     0.760923    -0.045764
