12

C     -1.059135     0.397156     0.213867
C      1.260749    -0.364487     0.458328
C      0.824961     0.559656     1.476125
O     -0.317177    -0.801536    -0.042795
O      1.450832     1.735339     1.564172
O     -0.563043     0.692741     1.525347
H      0.911834     2.308539     2.150826
H     -2.118233     0.163628     0.289152
H     -0.819967     1.204736    -0.494816
H     -0.214651    -0.817935     1.297023
H      1.623390    -1.335720     0.766427
H      1.748341     0.034782    -0.437058
