12

C     -0.658326     0.132029     0.228110
C      0.811975    -0.196230    -0.083404
C      1.537832     0.494513     1.403014
O     -0.726653     0.723906     1.489974
O      2.015690     1.702187     1.055258
O      0.408125     0.488293     2.200714
H      1.777376     0.896755     0.071958
H     -1.292984    -0.761593     0.265548
H     -1.084203     0.844618    -0.493297
H      2.221400    -0.327453     1.710671
H      1.070138    -1.265348    -0.033187
H      1.087531     0.087723    -1.108258
