12

C     -0.317059    -0.460863    -0.504630
C      0.724171     0.986251     1.893241
C      1.877532     1.115787     1.087292
O     -0.912668     0.254941     0.475848
O     -0.064266    -0.085904     1.412677
O      2.004982     0.283254     0.040215
H      2.945192     0.545510     1.114040
H     -0.634118    -1.474454    -0.641695
H     -0.009391     0.097793    -1.377290
H      2.216583     2.183738     1.076523
H      0.205277    -0.952416     1.632013
H      0.141566     1.809762     2.267170
