12

C     -0.020887    -0.267816     1.200167
C     -0.749098     0.708642     1.750521
C     -0.435540     2.078063     1.486666
O      1.025648    -0.084664     0.417911
O      0.694733     0.722299    -0.706207
O     -0.592170     3.064195     2.187956
H      1.102274     0.238073    -1.419487
H      0.255465     2.809187     2.725088
H     -0.167149    -1.312587     1.478202
H     -0.094770     2.418157     0.497816
H      1.308553     2.588825     2.312671
H     -1.541858     0.458423     2.449494
