12

C     -0.829366    -0.576308     0.457074
C     -0.308499     0.601236     0.611632
C      0.156759     1.664837     1.377078
O      1.474375     1.731564     1.776651
O      1.791574     0.619650     2.508033
O     -0.695938     2.431172     2.063790
H      2.736597     0.534980     2.173918
H     -0.257812    -1.450549     0.841879
H     -1.821530    -0.685843     0.032230
H     -0.033199     2.396207    -0.120569
H     -0.200219     2.640090     2.889167
H     -0.068743     1.601464    -0.563284
