12

C     -1.010581     0.708866    -0.021378
C      0.817106    -0.626897     0.506220
C      0.545081     0.427632     1.558805
O     -0.331892     0.354296    -0.948395
O      1.474463     1.448628     1.406012
O     -0.753334     0.935951     1.309567
H      1.366671     2.049397     2.172031
H     -0.523597    -0.698499    -0.105892
H     -1.829358     1.330088    -0.340612
H      0.511810    -0.037361     2.553543
H      0.800216    -1.658133     0.838091
H      1.661415    -0.456968    -0.161494
