12

C     -0.596605     0.027869     0.140877
C      0.800092    -0.197730    -0.216940
C      1.581141     0.502679     0.734543
O     -0.559576    -0.239142     1.561011
O      2.260666     1.606314     0.358116
O      1.032031     0.444122     1.976622
H      2.013016     2.302133     1.055583
H     -1.242225    -0.692502    -0.390733
H     -1.007372     1.030861    -0.003722
H      1.812958    -0.447616     1.604317
H     -0.072725    -1.063746     1.092235
H      1.146699    -0.453940    -1.204909
