12

C     -0.786432    -0.523967     0.500847
C      1.302390     0.955192    -0.408159
C      0.620337     1.197679     0.801550
O      0.421058    -1.125799     0.425387
O      1.233232    -0.182211     1.682555
O     -0.678012     0.829493     0.989612
H      0.832927    -0.546056     2.521886
H     -1.421670    -1.073244     1.213344
H     -1.278734    -0.372976    -0.479968
H      0.831177     2.167638     1.243610
H      1.996332     0.165157    -0.512427
H      1.318596     1.714294    -1.166436
