12

C     -0.863444    -0.801131     0.726067
C      0.504970     1.237110    -0.197780
C      0.469065    -0.065035    -1.012314
O      0.004242    -0.382046     1.590618
O     -0.004873     1.058992     1.075840
O     -0.637883    -0.872628    -0.528018
H      0.285739     0.110063    -2.078202
H      0.872127    -0.958463     1.381665
H     -1.820474    -1.164222     1.085031
H      1.381827    -0.661887    -0.897860
H      1.546608     1.590043    -0.135801
H     -0.079303     2.014906    -0.718146
