12

C      0.980151    -0.947719     0.572827
C      0.136762     0.129250     0.818726
C     -0.517222     0.867365    -0.307532
O      1.868232    -1.235784     1.432404
O      1.412729     0.324587     2.703228
O      0.373283     1.470744    -1.203365
H      2.219045    -0.091500     2.998203
H     -1.194004     1.633499     0.117749
H      0.869385    -1.591577    -0.303873
H     -1.122158     0.162824    -0.890308
H      1.014873     2.000769    -0.682116
H     -0.269577     0.159843     1.817957
