12

C     -1.449099     0.317095     0.654981
C      1.827061     0.474995     0.700370
C      0.743940    -0.083761    -0.026208
O     -0.952117    -0.504878     1.725438
O      0.264162    -0.502493     1.853972
O     -0.368208     0.728132    -0.144956
H      1.008971     0.440191     1.776630
H     -1.952777     1.162639     1.118591
H     -2.133605    -0.267784     0.019472
H      0.799281    -0.942277    -0.704049
H      2.635143    -0.218280     0.951568
H      2.119650     1.500321     0.493689
