12

C     -0.655226     0.436696     0.748355
C      1.676126    -0.230842     0.365826
C      0.742774     0.807943     0.914842
O     -0.363478    -0.909596    -0.359214
O      0.910479    -1.289233    -0.164734
O      1.109713     1.508891     1.998483
H      0.980039     0.940549     2.780277
H     -1.095073    -0.088200     1.610955
H     -1.320280     1.188252     0.305608
H     -0.215831     0.135090    -0.587886
H      2.304142     0.224485    -0.407442
H      2.344916    -0.642435     1.139332
