12

C     -0.611159    -0.506933     1.111229
C     -1.354917     0.781321     1.155563
C     -0.687471     1.926692     1.408001
O      0.304674    -0.603602     2.214291
O      1.532404    -0.357891     1.755254
O     -0.673919     2.998568     2.013147
H      1.827026     0.292363     2.418679
H     -1.311916    -1.346382     1.250411
H     -0.073762    -0.652722     0.168233
H      0.662313     1.921181     0.667785
H      0.223593     2.611474     0.959456
H     -2.413468     0.909132     1.073851
