12

C     -1.106990     0.141102     0.091462
C      1.079246    -0.393314     0.278732
C      0.792916     0.639600     1.343596
O     -0.032095    -0.277518    -0.603992
O      1.782570     1.247592     1.932602
O     -0.288319     1.337091     1.309845
H      1.433633     1.937685     2.531275
H     -1.867296    -0.636345     0.222199
H     -1.603293     1.013359    -0.245100
H     -0.620834     0.314493     1.502370
H      1.161766    -1.419835     0.659218
H      1.996695    -0.126908    -0.255707
