12

C      0.748278     0.626961     0.514724
C      0.022764     1.332699     1.631650
C     -1.233772     0.599808     1.995932
O     -1.118567     2.785750     0.355672
O     -0.055672     3.387788     0.462274
O     -1.783763    -0.195795     1.311499
H      0.239484     2.707231     1.303997
H      1.729536     1.070758     0.330424
H      0.179617     0.660349    -0.427438
H     -1.647999     0.824110     3.000671
H      0.880741    -0.428383     0.793573
H      0.614156     1.542024     2.537225
