12

C      0.211169     0.264245    -0.804302
C     -0.223388     0.162980     0.582821
C     -0.314635     1.442054     1.384665
O      1.100461    -0.681767     0.782621
O      1.891273    -0.408509     1.661330
O     -1.291847     2.088994     1.570204
H      2.665027    -0.967361     1.727063
H      1.225850    -0.777661    -0.338256
H     -0.442173    -0.021574    -1.606091
H      0.598328     1.860811     1.839640
H      0.871877     1.091327    -1.063751
H     -1.085142    -0.482141     0.780555
