12

C     -1.334352     1.062138     1.569805
C      0.106583     0.611709     1.858022
C      1.082474     1.352455     0.989289
O     -2.248902     0.631630     2.299449
O      1.398358     0.770581    -0.172116
O      1.535807     2.411893     1.282097
H      2.118765     1.255084    -0.603768
H     -1.300032     0.209504    -0.233770
H     -1.343387     2.109635     1.161854
H     -1.740140     0.380564     0.534499
H      0.172144    -0.469974     1.696340
H      0.340184     0.834180     2.898698
