12

C     -1.146650    -0.511712     1.222250
C     -1.347544     0.063186    -0.016884
C     -0.132539     1.996586     1.280910
O      0.250081     0.929941     2.082144
O     -1.055385     2.834238     1.854928
O      0.017760     1.972322     0.037013
H     -1.311950     2.472702     2.757607
H     -1.870797    -0.341769     2.010128
H     -0.455256    -1.334079     1.372852
H      1.116515     1.811344     1.724602
H     -0.816584    -0.312966    -0.887812
H     -2.180952     0.721208    -0.190038
