12

C     -0.330537    -0.924502     0.218335
C      1.127773     0.807877     0.258417
C      0.882322     2.220836     0.608855
O      0.633730    -1.255426     1.034820
O      1.295933    -0.036645     1.498715
O      0.822047     3.092555    -0.242147
H      0.193142    -1.655359     1.838437
H     -0.499012    -1.675439    -0.558313
H     -1.156074    -0.305866     0.584974
H      0.751471     2.448219     1.683034
H      2.165024     0.350828     0.978917
H      1.955180     0.530724    -0.414545
