12

C     -0.563325     0.716778     2.185091
C      0.993548    -0.058055     0.266192
C      0.785799     0.802019     1.490255
O     -1.180472     2.194018     0.635140
O     -2.213890     1.993119     1.098736
O      1.627432     1.532446     1.956056
H     -1.771887     1.562808     1.965345
H     -1.192201    -0.122190     1.888715
H     -0.475148     0.859699     3.236436
H      0.700159     0.488886    -0.629868
H      0.376088    -0.963857     0.295066
H      2.056497    -0.289169     0.164235
