12

C      1.081103     1.023171     0.523886
C      0.230783    -0.064091    -0.657794
C     -0.066110     0.084372     2.258820
O      0.228038     1.254222     1.659195
O      2.256355     0.418679     0.632494
O      0.480126    -0.988955     2.095269
H      1.308694    -0.398559     0.434314
H      0.823265     0.100557    -1.551169
H      0.995678     1.931793    -0.092972
H     -0.912545     0.198004     2.924375
H     -0.740563     0.458538    -0.654203
H      0.086577    -1.135331    -0.498218
