12

C     -0.727482    -0.789699     1.074147
C     -1.122941     0.044965     0.015557
C     -0.649035     1.981432     0.972420
O     -0.899600     1.495904     2.140495
O     -0.050120     3.109078     2.234736
O     -0.387268     2.729027     0.101623
H     -0.573847     3.449430     2.986276
H     -0.728559     0.427553     2.038625
H      0.296325    -1.158969     1.110990
H     -1.466812    -1.370499     1.608639
H     -2.185116     0.094518    -0.244943
H     -0.438945     0.288461    -0.790966
