12

C     -1.045736     0.419061     0.176738
C      1.313638    -0.396138     0.547033
C      0.830688     0.489777     1.533899
O     -0.463991    -0.768054    -0.085564
O      1.394779     1.677887     1.794869
O     -0.590254     0.518629     1.549448
H      0.756103     2.397311     1.564214
H     -2.125561     0.369554     0.161974
H     -0.698533     1.285806    -0.416139
H     -0.155875    -0.769879     1.310313
H      1.547466    -1.400843     0.871017
H      1.965474    -0.046011    -0.241201
