12

C      0.900022    -0.964835     0.079530
C      1.113876     0.185957     1.465550
C     -0.120004     1.042879     1.376395
O      2.141589    -1.200366    -0.284678
O      1.112726    -0.598795     2.616559
O     -1.219435     0.654789     1.717503
H      0.178432    -0.814712     2.748200
H      0.385432    -1.781099     0.666865
H      0.293049    -0.426224    -0.654975
H      0.003550     2.046304     0.928490
H      2.003727    -0.736306     0.743252
H      2.002034     0.819911     1.457208
