12

C      1.099020     0.030327     0.421179
C      0.201659     0.032759    -0.719455
C     -0.206283     0.455539     1.874768
O      0.613250    -0.668820     1.507687
O      2.425583     0.129323     0.183504
O     -1.339757     0.668990     1.251880
H      2.908993     0.066080     1.022334
H     -0.918911     0.325402     0.055233
H      0.733842     1.245469     1.140205
H     -0.160111     0.686715     2.926885
H      0.055080    -0.944706    -1.177088
H      0.359134     0.855322    -1.413232
