12

C      0.853831     0.844613     1.823446
C      0.707062     0.399841     0.541217
C     -0.413287     0.827747    -0.357492
O      1.221062     0.014464     2.707006
O      1.615181    -1.507591     1.417318
O     -0.635355    -0.005827    -1.442711
H      1.531400    -1.802325     2.363701
H     -0.220025     1.854651    -0.703583
H      0.704477     1.882346     2.133550
H     -1.369611     0.844284     0.185996
H      0.189149    -0.387097    -1.740363
H      1.587616    -0.082607     0.145712
