12

C     -1.023919     1.150479     0.877120
C      1.395377     2.237826     2.202278
C      0.677515     1.760255     0.943932
O     -0.184600     0.470396     1.509071
O     -2.074393     0.451036     0.387472
O      1.022304     2.135455    -0.132379
H     -2.025025    -0.477130     0.583706
H     -1.641958     2.337726     1.261804
H     -1.551003     2.251529     0.392724
H      1.035517     3.222245     2.508419
H      1.232163     1.503780     3.002803
H      2.460221     2.347602     1.981552
