12

C      0.122371    -1.380240     0.499109
C      0.188639     1.927979     0.266147
C      0.974848     0.741204     0.175610
O      0.531723    -0.964213     1.769082
O      0.685204     0.362831     1.855009
O      0.295468    -0.291191    -0.390412
H     -0.246697     1.040834     1.545062
H     -0.922162    -1.676463     0.548715
H      0.752349    -2.203494     0.135251
H      2.060863     0.796717     0.126921
H     -0.748314     2.002065    -0.269288
H      0.697208     2.849071     0.550792
