12

C      0.422283     0.096461    -1.343999
C      0.509488     1.273862    -0.503834
C     -0.296557    -0.481810     1.022195
O     -0.164527    -1.091608    -0.190234
O     -0.241648    -1.309684     2.061740
O     -0.049086     0.781172     1.129356
H      0.381382    -0.951044     2.688345
H     -0.298600     0.084546    -2.163996
H      1.329481    -0.423376    -1.607273
H     -1.230737    -0.563320     0.062221
H      1.492049     1.609095    -0.179088
H     -0.195229     2.081605    -0.684132
