12

C      0.433087     1.665311    -0.492805
C      0.066302     0.766115     0.432629
C     -0.007152     1.122036     1.857818
O     -0.015785     0.010104     2.716567
O      0.125239     0.366126     3.975299
O      0.603473     2.175730     2.319875
H      0.547317     1.211628     4.020328
H      1.077148     2.495289    -0.243231
H      0.071991     1.598913    -1.521557
H     -1.523513     1.271643     2.199236
H     -1.207127     1.963687     2.037489
H     -0.235780    -0.243083     0.159355
