12

C      0.604441    -0.484880    -0.567773
C      0.236192     0.776564    -0.234020
C      0.562175     1.207476     1.166036
O     -0.844915     0.699416     1.500998
O     -0.992258    -0.580001     1.604887
O      1.508303     0.530581     1.768165
H     -1.014109    -0.929372     2.466445
H     -0.090339    -1.310880    -0.457352
H      1.292844    -0.614204    -1.406473
H      0.562172     2.289885     1.348023
H      1.262047    -0.532922     0.942577
H     -0.024453     1.526237    -0.961613
