12

C      1.166249     0.548933     0.850850
C      0.386023    -0.161482    -0.963951
C     -0.523800     0.508320     2.382989
O      0.451152    -0.203530     1.695014
O      1.924801     0.286698    -0.204733
O     -1.064744     1.479202     1.952469
H      2.315985    -0.437751     0.392322
H      0.649053    -1.203512    -1.128292
H      1.318985     1.622557     1.147057
H     -0.758482     0.064671     3.347179
H      0.514163     0.410463    -1.886146
H     -0.607883    -0.032070    -0.510758
