12

C      1.767725     1.286322    -2.075241
C      0.246802     0.475811    -0.436931
C      1.348046    -0.071606    -1.097965
O      1.402010     2.543222    -1.665969
O      0.212814     2.921839    -2.168693
O      2.418562    -0.555888    -0.609790
H      0.358644     3.793902    -2.540897
H      1.346978     1.014542    -3.052361
H      2.859326     1.210229    -2.030031
H      0.863176    -0.603692    -2.013350
H      0.172051     0.424105     0.634805
H     -0.607236     0.900710    -0.979278
