12

C      0.306258     0.593341    -0.776380
C     -0.188326    -0.290960     1.302599
C     -0.348358     0.985718     0.745350
O      0.972128    -0.941199     1.432381
O      2.164274    -0.270625     1.259724
O     -1.256995     1.859278     0.651734
H      2.651807    -0.467614     2.095628
H      0.312092    -0.456174    -1.095913
H     -0.362303     1.142006    -1.428073
H      0.600362     1.379318     1.306678
H      1.366818     0.913378    -0.702437
H     -1.010956    -0.875066     1.725207
