12

C      0.676665     0.117269     0.633548
C      0.024756    -0.135260    -0.688920
C     -0.392060     0.516598     1.989146
O      0.851268    -0.663165     1.621450
O      2.255928     0.706148     0.248150
O     -0.479862     1.643076     2.171635
H      2.858413     0.197157     0.833263
H     -1.053454    -0.200420    -0.525346
H      1.482879     1.268862     0.782696
H     -1.064516    -0.131931     2.536076
H      0.386850    -1.083055    -1.100589
H      0.224632     0.647120    -1.427208
