12

C      0.241661     0.978750     0.072078
C      1.005175    -0.075232    -0.688795
C     -0.901023     0.729153     1.789982
O     -0.982502     0.602610     0.368574
O      2.115996    -0.436450     0.107083
O     -0.986688     1.823165     2.281348
H      2.859910     0.060877    -0.207032
H     -1.230564     1.518064    -0.071860
H      0.738786     1.885139     0.371864
H     -1.085724    -0.227944     2.291479
H      0.385595    -0.967211    -0.867934
H      1.261876     0.348880    -1.684987
