12

C      1.421993    -0.762333     1.020820
C     -0.265995     0.661073    -0.076075
C      0.252877     1.558504     0.828534
O      0.861148    -1.820317     0.439479
O      1.818728    -0.965486     2.257527
O      0.525744     1.226977     2.005382
H      1.708829    -0.197085     2.813484
H      1.238773    -2.590443     0.876690
H      2.029942    -0.113740     0.398966
H      0.484398     2.578842     0.466334
H     -1.022205    -0.030378     0.299255
H     -0.277532     0.862483    -1.148497
