12

C      0.040336    -0.674830    -0.802924
C      1.243200     1.004140     0.719559
C      0.266415     0.901696     2.053258
O      0.663136     1.051337    -0.412195
O      1.396449    -0.231829     1.349696
O     -0.943350     0.731889     1.985661
H      1.076501    -0.757901     0.225095
H      0.273459    -0.457773    -1.846639
H     -0.973203    -0.363018    -0.569399
H      0.795973     1.291416     2.930523
H      0.169140    -1.745602    -0.557007
H      2.126143     1.645675     0.864571
