12

C      0.409250     1.005821     1.621622
C      1.899916     1.189391     1.680793
C     -1.253767     0.049991     0.336286
O      0.056899     0.082810     0.626960
O     -0.344618     1.151602     2.649078
O     -2.135031     0.653777     0.919320
H     -1.100789     1.951775     1.601031
H      2.301420     0.505356     2.443704
H     -0.331968     2.262260     0.967561
H     -1.419338    -0.599617    -0.516343
H      2.146332     2.202783     2.013586
H      2.367795     0.985649     0.710901
