12

C     -0.901657     0.175737     0.341542
C      0.853464    -0.422685    -0.036115
C      1.463267     0.374140     1.044742
O     -0.858754     0.748455     1.512354
O      2.168903     1.454786     0.506889
O      0.853641     0.529758     2.175868
H      2.012444     2.186796     1.149625
H     -1.447779    -0.794343     0.285904
H     -1.122665     0.835479    -0.533996
H      2.223349    -0.498788     1.073511
H      0.617792    -1.467910     0.207828
H      1.306093    -0.302124    -1.021151
