12

C      0.896073     0.330432     0.382555
C      0.091706    -0.024087    -0.822890
C     -0.134371     0.488216     2.291575
O      0.867396     0.247521     2.916364
O      2.060620    -0.310959     0.459365
O     -0.957037     1.331722     1.962712
H      2.675859     0.189471     1.061204
H     -0.977660     0.152642    -0.641310
H      0.874606     1.394034     0.660806
H     -0.327531    -0.529176     1.622805
H      0.297557    -1.033455    -1.183012
H      0.404280     0.646040    -1.636276
