12

C      0.376933     1.621829     0.934154
C     -1.161601    -0.451035     0.790932
C     -0.587611     0.716420     1.145928
O      1.344198     2.038709     1.756797
O      2.089877     1.022049     2.293083
O     -1.043608     1.896593     2.251231
H      2.723879     1.026422     1.667930
H      0.556435     2.090996    -0.465759
H      0.931154     1.368203    -0.528105
H     -0.481167     2.041598     2.931490
H     -0.608493    -1.220814     0.277653
H     -2.195698    -0.642469     0.992267
