12

C      0.990107     0.788473     0.070355
C      0.210111     0.022229    -0.961723
C     -0.080485     0.069367     2.372894
O      0.666041     1.069109     2.134411
O      2.088531     0.255094     0.518136
O     -0.416107    -0.787467     1.626119
H      1.866222     0.017066     1.563843
H      0.754367     0.102809    -1.911908
H      0.855352     1.868596     0.108347
H     -0.519847     0.049507     3.396976
H     -0.786094     0.462224    -1.113901
H      0.143203    -1.034606    -0.729549
