12

C     -0.733141     0.063190     0.777215
C      1.700383    -0.174746     0.507154
C      0.648375     0.655939     1.064455
O     -0.492907    -1.077457    -0.020535
O      0.506587    -0.673981    -0.858531
O      0.814556     1.172916     2.302502
H      0.762282     0.378970    -0.572030
H     -1.220809    -0.233322     1.713353
H     -1.365163     0.764201     0.210156
H      1.283419     2.009500     2.163565
H      2.569880     0.301793     0.052544
H      1.944738    -1.105402     1.004551
