12

C      0.837041     1.091775     1.353259
C     -1.062389    -0.626893     0.901586
C     -0.310122     0.358567     1.414530
O      1.053268     2.438165     1.345532
O      0.220311     2.998380     0.504712
O     -0.275845     1.002244     2.877619
H      0.775530     3.533671     0.013120
H      1.679443     0.516913     0.282350
H      2.037638     0.359782     1.062239
H     -0.272957     1.919893     2.904421
H     -1.004565    -1.624557     1.320300
H     -1.733053    -0.459241     0.067633
