12

C     -0.175895    -0.024175     0.016425
C      0.629211     1.804672     1.245166
C      0.120902     1.110300     2.448169
O     -0.791761    -0.492423     1.072103
O     -0.213015    -0.204669     2.256739
O     -0.017294     1.636045     3.534676
H     -1.322865     1.816576     0.541814
H     -0.860119     1.711397     0.048979
H     -0.741072    -0.089482    -0.907462
H      0.883346    -0.296336    -0.057256
H      0.547315     2.888919     1.295977
H      1.571647     1.419577     0.862071
