12

C      0.505414     1.398746     1.622612
C     -0.875348     1.578858     1.004744
C     -1.618796     1.471666     1.948311
O      1.050878     0.198594     1.530049
O      2.112344     0.125309     2.324051
O     -0.129527     1.430320     3.231743
H      2.813849     0.393999     1.714779
H      0.685215     1.727626    -0.450383
H      1.112123     2.285269     1.752117
H     -2.604657     1.382790     2.345480
H     -0.008700     0.477572     3.431682
H     -0.040794     2.120151    -0.203384
