12

C     -1.697763     0.209479     0.508598
C      2.006968     0.587490     0.759143
C      0.607887     0.068817     0.666313
O     -1.471120    -0.811565     1.337314
O      0.174559    -0.721711     1.694335
O     -0.274942     0.735017     0.009161
H      2.662481    -0.136461     1.263234
H     -2.128091     1.111669     0.979955
H     -2.167885    -0.051775    -0.461469
H      0.460366    -1.225655     0.558574
H      2.387254     0.823172    -0.237410
H      1.982786     1.515224     1.341752
