12

C     -0.407305     0.689773    -0.587856
C      0.805706     0.050853    -0.859394
C      0.048895    -0.015301     2.245344
O      0.389476     0.871908     1.411988
O      0.112247     0.305665     3.520967
O     -0.357584    -1.133535     1.827284
H      0.491639     1.210255     3.556988
H     -1.285319     0.093056    -0.390330
H     -0.537679     1.750738    -0.712055
H      0.981932    -0.014859     0.497105
H      1.636187     0.665423    -1.200278
H      0.754304    -0.953475    -1.282862
