12

C     -0.037690     0.130184    -1.022641
C     -0.198461     0.257146     0.439716
C     -0.150437     1.449202     1.168055
O      1.274802     0.008760     1.384707
O      2.284192    -0.011683     1.879760
O      0.120962     2.573506     1.360015
H      2.463371    -0.775258     2.570643
H      0.265198    -0.892475    -1.275458
H     -1.009519     0.311605    -1.481230
H      0.272775     0.214926     2.022660
H      0.715080     0.848553    -1.382952
H     -0.793475    -0.543067     0.853125
