12

C      0.971142    -0.415114    -0.310961
C      0.599432     1.590039     0.554923
C      0.048332     0.307400     0.657954
O      1.600306    -1.437029     0.264948
O      1.524131    -0.657245     1.706458
O     -0.903533    -0.119113     1.434544
H      1.658788    -1.105361     2.234639
H      1.679040     0.616506    -0.347632
H      0.623038    -0.543280    -1.351894
H     -0.969087    -1.079400     1.302360
H      0.369564     2.222154    -0.275195
H      0.861445     2.149539     1.446055
