12

C      1.120421    -0.477970     0.879581
C      0.090903     0.393979     0.947955
C     -0.639752     0.752652    -0.306705
O      2.193319    -0.953717     0.950459
O      1.431220    -0.391975     2.845953
O      0.214784     0.986006    -1.395780
H      1.711973    -0.939241     3.429815
H     -1.290951     1.625336    -0.131429
H      1.567735    -0.704649    -0.179926
H     -1.282010    -0.083779    -0.611154
H      0.729374     1.798213    -1.261528
H     -0.075615     0.877544     1.906560
