12

C     -0.933814    -0.566882     0.855947
C     -1.486578     2.088405     2.023947
C     -0.687033     1.305203     2.830805
O     -1.260553     0.422178     0.052494
O     -0.291161     1.326404     0.433391
O     -0.808175    -0.579157     2.063405
H     -1.087633     0.810489     3.695338
H      0.473464    -0.052163     0.645786
H     -1.363757    -1.467109     0.395637
H      0.365688     1.560186     2.895569
H     -2.564774     1.876732     1.966170
H     -1.183174     3.081714     1.724208
