12

C     -0.640536    -0.795102     0.811249
C      1.377386     0.951579    -0.157342
C      0.361626     1.640382     0.541529
O      0.636292    -1.238948     0.461160
O      1.439013    -0.409600     1.317810
O     -0.685275     1.132092     1.062889
H      0.318399    -0.492071     1.923129
H     -1.122267    -1.442083     1.518864
H     -1.302911    -0.559299    -0.039824
H      0.544245     2.727626     0.672846
H      1.135895     0.240652    -0.932459
H      2.329335     1.449971    -0.368055
