12

C      0.620307    -0.197589     1.220104
C      0.217243     0.955873     1.275100
C      0.775933     2.291369     1.303659
O      0.893922    -1.212029     1.935677
O     -0.259561    -1.904389     2.117853
O      0.023519     2.985399     0.319338
H      0.286233    -2.536589     2.657452
H      1.865938     2.226790     1.119145
H     -0.723472    -0.490482     0.317942
H      0.637683     2.704131     2.318834
H      0.508412     3.832104     0.233500
H     -0.959157     0.409210     0.747796
