12

C     -0.945933     0.221470     0.654321
C      1.115961    -0.881065     0.360303
C      0.761998     0.158634     1.212190
O     -1.689817    -0.930771     0.675128
O      1.687241     1.110546     0.505255
O      0.845724     0.289336     2.443933
H      1.375239     1.909551     0.171445
H     -1.297679     0.916300     1.436733
H     -0.851338     0.669756    -0.362856
H     -2.621771    -0.709935     0.596872
H      1.459962    -1.828322     0.762448
H      1.027213    -0.819701    -0.733773
