12

C      0.761751    -0.224035     0.444418
C      0.094557     1.154430     0.425796
C     -0.581202     1.125737     1.741333
O      0.653522    -0.705202     1.750781
O     -1.716323     1.620497     2.095867
O      0.009531     0.237859     2.545265
H     -1.383803     2.793071     1.858182
H      0.277295    -0.934871    -0.240821
H      1.840802    -0.180895     0.242371
H     -0.594833     3.135739     1.520060
H     -0.617370     1.327523    -0.383934
H      0.886673     1.930545     0.358083
