12

C      1.231068    -0.211095     0.772504
C      0.897962     0.773628    -0.168970
C      0.007581     0.909433     1.261723
O      0.129124    -1.747934     0.681258
O      2.217172    -0.313021     1.597672
O      0.320264     1.520465     2.272902
H      1.957373     0.390179     2.282734
H      0.169631    -2.140048     1.595444
H      1.002949    -1.573611     0.269079
H     -1.019990     0.675171     0.955919
H      0.279430     0.516263    -1.026972
H      1.584238     1.608471    -0.311292
