12

C      1.259175     0.414717     0.181822
C      0.301943     0.035407    -0.794169
C     -0.599754     0.288364     2.178651
O      0.056844    -0.543899     1.449847
O      2.432333    -0.186435     0.272136
O     -0.944066     1.443739     1.813608
H      3.116299     0.460183     0.663234
H     -0.573632    -0.207539     0.175173
H      1.143685     1.380899     0.658378
H     -0.841248    -0.092436     3.184149
H      0.527481    -0.922865    -1.280180
H     -0.107559     0.812266    -1.428749
