12

C     -0.324003     1.712540     0.491458
C      0.098474     0.576267     1.362125
C     -0.241096     0.883798     2.803489
O      0.431866     1.953548    -0.542332
O      1.446767     0.213539     1.195989
O     -1.264726     1.428647     3.122733
H      1.924257     0.939382     0.773095
H     -0.060425     1.302576    -1.179648
H     -1.300465     2.182174     0.585986
H      0.508509     0.559463     3.559164
H      0.122764     0.371102    -1.029819
H     -0.495522    -0.319436     1.087157
