12

C     -0.013328    -0.067677     1.402548
C     -0.178656     1.037107     0.428368
C      0.677121     1.106468    -0.676863
O      1.384307    -0.241169     1.684520
O      1.906236    -0.980609     0.717940
O      1.789415     1.639463    -0.347758
H      2.507007    -0.447277     0.242229
H     -0.400901    -1.021748     0.998661
H     -0.531443     0.178707     2.339545
H      0.439064     0.892839    -1.709015
H      1.474759     1.588217     0.834819
H     -1.202382     1.368980     0.312804
