12

C      0.742843    -0.331084    -0.260362
C      0.232993     1.916885     0.606071
C     -0.050883     0.605071     0.568312
O      0.929675    -1.518363     0.341993
O      2.585321    -1.118780     1.122610
O     -1.039891     0.080184     1.328910
H      2.167418    -1.165697     2.028236
H      2.079408    -0.589041     0.241583
H      0.566123    -0.372433    -1.344937
H     -0.862525    -0.881650     1.407659
H      1.200089     2.275469     0.274530
H     -0.487970     2.628538     1.001593
