12

C     -0.297874     0.445534    -0.164991
C      1.327562     0.562518    -0.871242
C     -0.472665     0.764623     2.099937
O     -0.665658    -0.088227     1.056051
O      1.814618    -0.630235    -0.356768
O     -0.053045     1.884115     2.036949
H      0.984463    -0.378564     0.460849
H     -0.703600    -0.225727    -0.950228
H     -0.591857     1.502309    -0.229183
H     -0.768683     0.273734     3.042138
H      1.090558     0.642468    -1.931786
H      1.758778     1.487252    -0.430024
