12

C     -0.533242     0.764852     0.396704
C      1.431103    -0.772612     0.616573
C      0.964767     0.456167     1.377269
O     -0.618549    -0.805207    -0.255276
O      0.293367    -1.568887     0.346095
O     -0.546744     1.489848     1.353779
H      1.681361     1.276492     1.380556
H     -1.291832    -0.176085     0.702252
H     -0.579028     1.334818    -0.549566
H      0.668599     0.179415     2.390827
H      2.135699    -1.353921     1.224072
H      1.878198    -0.501978    -0.346787
