12

C      1.606508    -0.691355     0.725690
C     -0.197206     0.466128     0.136077
C      0.306450     1.386423     1.020073
O      1.054027    -1.869308     0.354674
O      1.934327    -0.568219     1.997205
O      0.324282     1.105878     2.267885
H      1.235424     0.193777     2.425464
H      0.566559    -2.098907     1.161974
H      2.291723    -0.303776    -0.022699
H      0.753941     2.323452     0.661634
H     -1.151004     0.001796     0.374975
H      0.051668     0.462215    -0.921051
