12

C      0.750618     1.266040     0.725393
C     -0.295433     0.528651     1.525977
C     -0.716985     1.412982     2.670225
O     -0.527760     1.141226    -0.904535
O     -0.905405     2.265691    -0.650268
O     -1.520974     2.297971     2.524562
H      0.291041     2.351787     0.074008
H      1.365080     0.737470     0.078114
H      1.461835     1.835737     1.271332
H     -0.224810     1.203579     3.655344
H      0.086167    -0.425460     1.905513
H     -1.188774     0.297424     0.934337
