12

C      0.310661    -0.386888     0.976264
C      0.196970     1.974178     1.001290
C     -0.503753     1.412385     2.169394
O      1.186859     0.636782     0.570430
O      1.365625     2.349823     0.860949
O     -0.549303    -0.005962     2.016843
H     -1.514094     1.804255     2.271258
H     -0.274333    -0.685566     0.088932
H      0.897523    -1.258221     1.331091
H      0.081403     1.700147     3.057395
H     -0.961421     1.942799    -0.157219
H     -0.698138     2.637767    -0.163630
