12

C     -0.227675    -0.152466    -0.349360
C      0.932246     0.142182    -1.063043
C     -0.223709     0.825203     2.248341
O      0.557702     0.298325     1.331363
O     -0.079062     0.550311     3.545359
O     -1.138506     1.572600     1.959396
H      0.643222    -0.039687     3.638430
H     -0.509115    -1.160815    -0.043841
H     -1.038110     0.568103    -0.333226
H      1.227407     0.660125     0.215338
H      0.878701     0.932581    -1.807702
H      1.609401    -0.675960    -1.314154
