12

C     -0.139476    -0.172919     0.721165
C      1.160299     0.394534     1.288123
C     -0.567773     1.697512     1.999454
O     -1.155057     0.624199     1.315581
O     -1.218919     2.449511     2.704981
O      0.779491     1.539345     2.066271
H     -1.024839     2.609395     0.966769
H     -0.168071    -0.120035    -0.373411
H     -0.346262    -1.202610     1.036797
H     -0.266989     2.794625     0.458457
H      1.853877     0.707930     0.504949
H      1.667620    -0.293187     1.973563
