12

C     -0.723611     0.450468     0.469695
C      1.541442    -0.240650     0.262386
C      0.631774     0.957801     0.704287
O     -0.922895    -0.815487     0.681342
O      0.955355    -1.468498     0.255048
O      0.860410     1.274918     2.072404
H      0.644885     0.521568     2.555119
H     -0.425965    -1.011126     1.510805
H     -1.292628     0.784050    -0.414835
H      0.852742     1.869777     0.111540
H      1.856514    -0.004791    -0.786839
H      2.440378    -0.236332     0.923448
