12

C      0.025556    -0.367152    -1.157777
C      0.402175     0.146197     1.078426
C      0.214936     0.919567     2.284730
O     -0.507719     0.015317     0.092518
O      1.368948    -0.808483     1.076499
O      1.457405     1.386994     2.055484
H      1.820465    -0.794982     1.879552
H      0.737174     0.369502    -1.508360
H     -0.816326    -0.419512    -1.840976
H     -0.381812     1.843065     2.275622
H      0.500120    -1.356095    -1.129263
H      1.313080     1.460681     0.833948
