12

C      0.780245     0.285231     1.055904
C      0.329113     1.628491     1.084103
C     -0.721239     1.694230     2.141692
O     -0.219600     0.339566     2.608537
O      2.072335     0.162975     0.615723
O     -1.069321     2.607083     2.859108
H      2.325710    -0.761244     0.541401
H     -0.336265     0.191821     3.486985
H      0.229854    -0.626465     0.856203
H     -1.596834     0.731374     0.964468
H     -1.104430     1.041353     0.339975
H      1.071430     2.430585     0.943801
