12

C     -1.069471    -1.285544     1.116577
C      1.531544     2.136018    -0.488485
C      1.450820     1.535723     0.707959
O      0.658393    -0.478231     1.261477
O     -0.395842    -2.298887     0.727515
O      0.432969     0.707172     0.939355
H      0.787787    -1.551134     1.076132
H     -1.487156    -1.226442     2.130153
H     -1.593353    -0.667861     0.369987
H      2.054529     1.757960     1.583215
H      2.239006     2.960885    -0.621982
H      0.941673     1.767441    -1.330406
