12

C      0.104636     0.950426    -0.404858
C      1.228166     0.269979    -0.982977
C     -0.598651     0.619848     2.181081
O      0.496570     0.557713     1.390170
O      1.449413    -0.898792    -0.417262
O     -1.729905     0.568526     1.786395
H      0.897271    -0.279715     0.986123
H     -0.813412     0.361653    -0.341035
H      0.001989     2.040902    -0.420599
H     -0.348038     0.798661     3.238503
H      0.642763     0.316069    -2.027473
H      2.091697     0.934631    -1.226269
