12

C      0.855313     0.561537     0.505964
C      0.124333     0.072446    -0.658305
C     -0.557601     0.568344     2.273207
O      0.567513    -0.034266     1.723233
O      2.278558    -0.210301    -0.104376
O     -1.009788     1.602473     1.963571
H      2.571511    -0.784326     0.552480
H      1.301728    -0.727696    -0.715726
H      1.239206     1.584746     0.563675
H     -0.988777    -0.052447     3.056271
H      0.255571     0.653216    -1.576534
H     -0.866065    -0.351224    -0.509458
