12

C      0.656265     0.048107    -1.242413
C      0.626553     1.165719    -0.242342
C     -0.668973    -0.495168     0.700846
O     -0.254842    -0.819210    -1.278593
O      0.230436    -0.980558     1.577157
O     -0.520455     0.885139     0.581955
H      0.270580    -0.321434     2.302375
H     -0.973329    -0.327392    -0.772188
H      1.562649    -0.135725    -1.816681
H     -1.332881    -1.211934     0.796219
H      1.566394     1.134450     0.345176
H      0.496103     2.163905    -0.660010
