12

C      0.452984    -0.871097     0.082236
C      1.194243     0.627037     1.666829
C     -0.159378     0.531323     1.152241
O      1.644440    -1.564704     0.139027
O      1.795927    -0.281154     2.423193
O     -1.239817     0.596657     1.761384
H      1.312372    -0.182199     3.276325
H     -0.412997    -1.511686     0.301788
H      0.388389    -0.390893    -0.897762
H      0.117339     1.165557     0.227281
H      2.051124    -1.499357     0.985675
H      1.650373     1.608218     1.741583
