12

C      0.631525     0.120660    -0.743721
C      0.058361    -0.250918     1.144087
C     -0.410226     1.073419     1.665690
O      1.184313    -0.753449     1.612575
O      2.043556     0.075770     0.368906
O      0.229755     1.780740     2.403524
H      2.033143     0.683087     1.026395
H     -0.200404     0.824105    -0.747656
H      1.376449     0.502300    -1.431949
H     -1.412066     1.380041     1.296086
H      0.434538    -0.913206    -1.002419
H     -0.762244    -0.951049     0.924883
