12

C      1.003449     1.015198     0.267885
C      0.046392     0.129127    -0.485890
C     -0.176094    -0.054728     1.924132
O      0.557544     0.996940     1.658300
O      2.320051     0.605845     0.167312
O     -0.516763    -0.886302     1.070164
H      2.540505     0.147152     0.993979
H      0.381220    -0.981729     0.464430
H      0.916538     2.063266    -0.053150
H     -0.610640    -0.056294     2.908299
H     -0.905005     0.608624    -0.721633
H      0.214204    -0.704700    -1.119827
