12

C     -0.470723    -0.572759     0.556170
C      0.863232     1.566748    -0.143383
C      1.693551     1.083713     0.872789
O     -0.502306     0.239743     1.634876
O      0.216825    -1.731033     0.603002
O      1.395419     0.357859     1.874032
H      0.750663    -1.688880     1.393628
H     -1.443275    -0.690648     1.407005
H     -0.935598    -0.381218    -0.402766
H      2.747704     1.327638     0.705928
H      1.308529     1.821770    -1.101637
H     -0.073320     2.024168     0.071958
