12

C      1.291155    -0.282373     0.777644
C      0.946102     0.754763    -0.105902
C     -0.072009     0.906849     1.179054
O      0.240983    -1.670153     0.696887
O      2.178742    -0.298206     1.688430
O      0.086366     1.363705     2.280730
H      1.833515     0.338290     2.392781
H      0.251857    -1.863215     1.652133
H      1.009147    -1.645210     0.085804
H     -1.066336     0.750342     0.748210
H      0.422248     0.478629    -1.023334
H      1.655130     1.574579    -0.190536
