12

C     -0.041714     0.736485    -0.490505
C      0.480889     1.605270     0.382899
C      0.269749     1.635551     1.869702
O      0.340144     0.454537     2.531975
O      0.169251     0.701887     3.855911
O      0.576803     2.714175     2.501674
H      0.270509    -0.127379     4.288923
H     -0.224852    -0.305261    -0.226990
H     -0.320791     1.025468    -1.491926
H     -1.487621     1.479575     1.795244
H     -1.213254     2.048123     2.390079
H      1.115889     2.434968     0.054313
