12

C     -1.186606    -0.851778     0.846712
C      1.104282     0.155146    -0.157071
C     -0.325303     0.196992     1.206136
O     -2.169791    -0.049467     0.812696
O      2.199135     0.151199     0.659514
O      0.112813     0.897988     2.058544
H      2.052140     0.601620     1.455548
H     -0.388144    -0.669142    -0.042698
H     -1.282454    -1.857134     1.195547
H     -1.403985     1.006894     1.192677
H      1.267791    -0.624259    -0.914349
H      0.887020     1.147739    -0.591256
