12

C      0.250233    -0.497085     0.974851
C     -0.520104     1.313955     2.132606
C      0.337482     1.778625     0.967944
O     -0.545419    -0.093443     2.057177
O      0.962693     2.928330     0.938188
O      0.785200     0.639749     0.332793
H     -0.210040     2.701261     0.202593
H     -0.365260    -1.061547     0.258358
H      1.099476    -1.112455     1.328528
H     -0.698055     2.167233    -0.326878
H     -1.538839     1.719586     2.104019
H     -0.019065     1.637292     3.052822
