12

C      0.448806     0.317342    -1.459158
C      0.373314     1.203610    -0.299171
C     -0.557333    -0.561319     0.784838
O      0.547821    -0.927436     0.023587
O     -0.238179    -0.919623     2.008939
O     -0.674205     0.837873     0.560537
H      0.478305    -0.433772     2.399271
H     -0.372967     0.159744    -2.136994
H      1.389108     0.042406    -1.906579
H     -1.488308    -1.060473     0.566890
H      1.212717     0.178454     0.089314
H      0.539421     2.269094    -0.339973
