12

C     -0.384038    -0.752835     1.588589
C      1.718262     1.767811    -0.068105
C      0.627727     0.935764    -0.027271
O     -0.719525     0.364257     0.772126
O      0.017379    -1.881212     0.886877
O      0.275646     0.148571    -0.846316
H     -0.033032    -1.678025    -0.037254
H      0.427208    -0.485438     2.294150
H     -1.285922    -1.016877     2.168510
H      0.609900     1.700277     0.998796
H      2.493860     1.825202     0.664524
H      1.803532     2.429603    -0.923126
