12

C     -1.442082     0.414156     0.821227
C      1.896278     0.429259     0.768411
C      0.879435    -0.464233     0.326508
O     -1.144669    -0.855324     1.305378
O      0.227966    -1.198627     1.249594
O     -0.316052     1.066184     0.348451
H      0.807073     1.132766     1.035148
H     -1.914197     0.980859     1.633578
H     -2.174259     0.283026     0.002699
H      0.829699    -0.820386    -0.704661
H      2.480532     0.126233     1.632145
H      2.412677     1.009686     0.001020
