12

C      0.224307     0.020481    -0.829795
C     -0.204679     0.217946     0.601749
C     -0.430954     1.571231     1.052786
O      0.999188     0.150047     1.703753
O      2.132366    -0.481178     1.345730
O     -0.674690     2.625455     1.278608
H      2.236103    -1.176484     2.022113
H      1.077822     0.651746    -1.074153
H      0.488559    -1.029092    -1.020215
H      0.898552     1.241068     1.967183
H     -0.613116     0.283390    -1.492183
H     -0.926661    -0.503309     0.960721
