12

C      1.268294     1.435233    -2.244915
C      0.460670     0.537745    -1.310170
C      1.132710    -0.658984    -0.936893
O      0.520580     2.607434    -2.495351
O      0.729419     3.492153    -1.523130
O      1.805774    -0.397355     0.162760
H      1.188214     4.213233    -1.995934
H      1.445740     0.948767    -3.222713
H      2.252292     1.670234    -1.802141
H      1.228013    -1.626569    -1.433520
H      0.974391     0.496857     0.144860
H     -0.617101     0.620850    -1.378653
