12

C      0.078392     0.172320    -0.941364
C     -0.138193    -0.156886     0.420678
C      0.274968     1.235809     1.560100
O      0.967250    -0.909812     0.888099
O      1.767145     0.495082     1.371852
O      0.027042     2.364416     1.201814
H      2.210610    -0.005610     1.768967
H      0.798635    -1.127945    -0.368856
H     -0.723853     0.699115    -1.472458
H     -0.043221     0.860393     2.553942
H      1.071140     0.582742    -1.170281
H     -1.083115    -0.638225     0.704008
