12

C      0.861171     1.689204     0.231890
C     -0.561088     1.990748     1.270894
C     -1.295553     1.012579     2.176188
O      0.308878     2.695010     1.571733
O      0.634438     0.524307    -0.441305
O     -1.470856    -0.149554     1.913802
H      0.261460    -0.175171     0.075530
H      0.876114     2.507605    -0.479588
H      1.798373     1.626322     0.831023
H     -1.664335     1.493786     3.103112
H     -1.494763     1.653374     0.161404
H     -1.583238     2.425589     0.440016
