12

C      0.331239     1.018523     1.914534
C     -1.071847     1.603735     1.870186
C      1.437618     0.079213     0.087751
O      0.437096    -0.027554     0.957787
O     -1.225482     2.626860     2.619296
O      2.502378     0.549562     0.320923
H     -1.501779     2.107673     0.735158
H      0.515324     0.614321     2.910124
H      1.051128     1.826151     1.735379
H      1.084709    -0.392154    -0.853127
H     -0.796649     2.039196     0.092089
H     -1.811736     0.787474     1.726300
