12

C     -0.564519     0.247848    -0.159704
C     -0.475345     1.403433     2.422746
C      0.747178     0.777572     2.384644
O      0.798397     0.460685     0.085562
O     -1.321048     0.866068     0.862101
O      1.102019     0.076752     1.340208
H     -0.831196     1.908536     1.050856
H     -0.739813     0.687532    -1.141266
H     -0.769254    -0.825182    -0.156740
H      1.541753     0.838150     3.108457
H     -0.233103     2.732325     1.493416
H     -1.146868     1.675183     3.204121
