12

C     -0.127136    -0.858459     1.456454
C      1.723731     1.270413     0.243850
C      0.455481     1.744346     0.054548
O     -0.529221     0.417591     1.131311
O      0.136589    -1.741570     0.378902
O     -0.469919     0.963981    -0.502955
H     -0.188971    -1.280879    -0.425628
H      0.819442    -0.844958     2.029284
H     -0.913599    -1.312440     2.102940
H      0.214359     2.727818     0.480151
H      2.388507     1.766898     0.964669
H      2.041737     0.504356    -0.442028
