12

C     -0.520682    -0.559795     1.612224
C      0.923927     1.193180     1.422273
C     -0.341986     1.449136     0.641543
O      0.721256    -0.053102     2.051614
O     -0.530228     2.154638    -0.409982
O     -1.236321     0.525362     0.968699
H     -0.492369     3.279157     0.298982
H     -1.155837    -0.889259     2.448490
H     -0.390441    -1.370116     0.871346
H     -0.337396     3.304915     1.197628
H      1.138716     1.929580     2.204234
H      1.759861     1.157804     0.716049
