12

C     -1.548408     0.360607     0.443845
C      1.904831     0.560964     0.831815
C      0.695566    -0.289466     0.499041
O     -1.501120    -0.691590     1.375842
O      0.071508    -0.921485     1.476504
O     -0.486272     0.787803    -0.098186
H      1.681804     1.159378     1.723194
H     -1.544727     0.476115     1.716453
H     -2.472726     0.388914    -0.135029
H      0.837757    -0.851637    -0.429532
H      2.763051    -0.092133     1.024179
H      2.141135     1.216129    -0.008626
