12

C      0.788159     0.586221    -1.274831
C      0.576700    -0.078633    -0.114014
C     -0.467204     0.571184     1.146816
O     -0.889233    -0.523461     1.904835
O      0.128740    -1.084464     2.509932
O      0.416312     1.418575     1.727565
H      0.369043    -0.551340     3.283673
H      0.928089     1.671607    -1.288485
H      0.830508     0.086064    -2.230500
H     -1.321315     1.010437     0.604420
H      1.093390     0.622761     0.965721
H      0.609211    -1.150951    -0.065131
