12

C     -1.364647     0.430513     0.828251
C      1.779377     0.427899     0.762626
C      0.828777    -0.512817     0.229886
O     -0.839085    -0.533138     1.773938
O      0.174464    -1.271618     1.113953
O     -0.349324     1.146615     0.318225
H      0.827890     1.094107     1.125005
H     -2.049335     1.079526     1.379896
H     -1.899672    -0.099286     0.034203
H      0.776528    -0.775354    -0.826356
H      2.321046     0.101129     1.646777
H      2.336381     1.016326     0.033095
