12

C     -0.719267     0.494564     0.267175
C      1.447492    -0.934561     0.735252
C      0.947494     0.225240     1.493248
O     -0.157896    -0.242196    -0.676226
O      0.439439    -1.446332    -0.094716
O      0.338345     1.293408     1.393329
H      0.970197     1.698429     0.644774
H     -1.476268    -0.040781     0.831036
H     -1.059412     1.464886    -0.104706
H      0.639882     0.125941     2.545560
H      1.800392    -1.677938     1.471625
H      2.313402    -0.637760     0.130248
