12

C     -1.025723     0.517488     0.413855
C      1.754605    -0.696459     1.078041
C      1.064443     0.462154     1.531550
O     -0.464706    -0.255807    -0.667480
O      0.622764    -0.868307    -0.465298
O     -0.300986     0.298806     1.614237
H      1.056995     0.150159     0.073834
H     -2.042040     0.199957     0.576145
H     -0.972728     1.570824     0.120854
H      1.484070     1.181899     2.206996
H      1.556800    -1.666235     1.515715
H      2.750308    -0.571579     0.638151
