12

C      1.596833    -0.359402     0.752103
C      0.456005     0.400341     0.258415
C      0.214905     1.653548     1.011176
O      0.190717    -1.721952     0.112983
O      1.687436    -0.741092     2.030767
O      0.277155     1.721821     2.222712
H      1.371841    -0.016492     2.592433
H      0.321933    -2.486935     0.695072
H      2.584788    -0.290494     0.315209
H     -0.023777     2.548299     0.395770
H     -0.275468    -0.800174     0.615181
H      0.374333     0.500629    -0.819822
