12

C     -0.624009     0.374905     0.222900
C      0.208338     0.539988     1.473837
C     -2.678278     1.370347     1.773684
O     -2.858885     0.372637     1.151550
O     -0.733565     1.298078    -0.613082
O     -2.641435     1.887975     2.846272
H     -1.802152     2.081846     0.005323
H      0.200898     1.583493     1.809416
H     -0.942766    -0.637351    -0.056960
H     -2.236687     2.378722     0.646791
H     -0.153866    -0.095757     2.299168
H      1.248308     0.278216     1.247398
