12

C      0.881734    -0.733424     0.097535
C      0.999413     0.426981     0.948605
C     -0.275209     1.109383     1.227859
O      2.103498    -1.385943    -0.075052
O      1.044654    -0.774305     2.302592
O     -0.763190     1.170295     2.307586
H      0.578143    -0.564729     3.096180
H      0.404374    -1.235362     1.319076
H      0.196235    -0.772117    -0.742034
H     -0.781503     1.584894     0.364051
H      2.482377    -1.514383     0.823656
H      1.924473     0.916409     1.189746
