12

C     -0.736996     0.073410     0.035887
C      0.698892    -0.350101    -0.089446
C      1.373475     0.281767     1.151221
O     -1.093855     0.738370     1.045331
O      1.708469     1.618275     0.845466
O      0.509766     0.280655     2.188210
H      2.591976     1.666823     0.455758
H     -0.735290    -0.130386     1.535258
H     -1.327518     0.371306    -0.831111
H      2.269287    -0.298892     1.434995
H      0.770560    -1.450963    -0.036571
H      1.139135     0.019138    -1.027899
