12

C     -0.437517    -0.719394     0.963729
C      1.638804     1.078029    -0.135061
C      0.530125     1.285133     0.947906
O      1.506046    -0.677549     1.166253
O      1.786216    -0.301017    -0.114893
O     -0.366360     2.045691     1.086536
H     -0.637567    -0.955987     1.991743
H     -0.251752    -1.560816     0.301342
H     -1.151498     0.032484     0.593371
H      1.304690     0.380519     1.587724
H      1.343447     1.464911    -1.114323
H      2.576265     1.525797     0.215273
