12

C     -1.002434     0.279945     0.713023
C      1.685876    -0.708407     0.637115
C      1.325906     0.437990     1.352540
O      0.233138     0.163546    -0.802810
O      1.112010    -0.727757    -0.587912
O      0.011264     0.498651     1.541267
H      0.689406     1.089614     0.163798
H     -1.881320    -0.133943     1.115301
H     -1.434426     0.898562    -0.005889
H      1.861744     0.590298     2.278328
H      0.298945    -0.793600     1.528958
H      2.583694    -1.271999     0.702883
