12

C      0.292621     0.656315    -1.036312
C      0.997022    -0.111363    -0.055260
C      0.045227     0.381776     0.988426
O     -0.760705    -0.571278     1.583659
O     -0.190375    -1.087929     2.611666
O      0.668495     1.302980     1.722575
H     -0.319123    -0.453118     3.376270
H      0.539965     1.698401    -1.175748
H     -0.116530     0.215405    -1.915891
H     -0.817507     0.841855     0.143376
H      1.508461     0.874042     1.119378
H      1.214850    -1.169085    -0.192140
