12

C      0.935417    -1.244512     1.307494
C      0.677713     1.316852    -0.013570
C     -0.645451     1.885233    -0.530843
O      0.654299    -0.085269    -0.117646
O     -0.256026    -0.991537     1.821500
O     -1.657683     1.930939     0.144325
H     -0.407482    -0.219004     0.697378
H      1.101980    -2.162826     0.717269
H      1.812759    -0.777363     1.750987
H     -0.638421     2.247147    -1.587625
H      1.532974     1.704891    -0.616065
H      0.806219     1.640349     1.032094
