12

C     -0.879786    -0.607307     0.534112
C     -0.378120     0.169684     1.461770
C      0.265624     1.313196     1.857393
O      0.125867     2.559487     1.389737
O     -0.127587     2.727447     0.077220
O      0.719213     1.345991     3.148695
H      0.746704     2.657278    -0.309585
H     -0.834154    -1.690187     0.628090
H     -1.361456    -0.177145    -0.351646
H      1.540570     0.793302     0.711347
H      0.737264     2.249943     3.495688
H      1.390060     0.166710     1.404878
