12

C      0.111436    -0.373511    -1.051628
C      0.942490     0.447708     0.512673
C      0.181969     1.046501     2.121622
O     -0.360238     0.079732     0.718924
O      1.941934    -0.410364     0.773867
O      0.614507     0.556665     3.082728
H      1.711342    -0.819982     1.656100
H      0.898326    -0.076470    -1.741017
H     -0.846260    -0.027106    -1.423019
H     -0.423143     1.945326     1.990407
H      0.132210    -1.429148    -0.868580
H      1.229427     1.455749     0.168320
