12

C     -1.012985    -0.794655     0.845313
C      1.234952    -0.011679    -0.056879
C     -0.095866     0.277452     0.640763
O     -2.213777    -0.535756     1.270125
O      2.301057     0.419489     0.710616
O     -0.134738     1.282577     1.512935
H      1.975712     0.567609     1.605572
H     -0.720503     0.895247    -0.023121
H     -0.805633    -1.866279     0.911685
H     -2.262193     0.403371     1.604509
H      1.339517    -1.080200    -0.294811
H      1.261356     0.548624    -1.004708
