12

C     -0.291646    -1.702425     1.016788
C      1.178383     1.005594     0.099226
C      1.461081     2.142528     0.876318
O     -0.063900    -0.351903     1.323482
O     -0.033405     0.376413     0.175128
O      2.094337     3.008584     0.133862
H     -0.299835    -2.270194     1.962142
H      0.511643    -2.085400     0.376636
H     -1.251950    -1.812165     0.507621
H      1.229129     2.374690     1.921499
H      1.235120     2.491402    -0.653291
H      2.072143     0.420776    -0.250013
