12

C     -0.140088    -0.131599     0.969052
C      1.338563     1.481514    -0.343993
C     -0.046111     1.000471    -0.002730
O      0.491142    -1.303815     0.631042
O      0.778820    -1.956892     2.121023
O     -1.077561     1.524742    -0.401455
H      1.707467    -2.136660     2.201157
H     -0.274863    -1.419546     1.533229
H     -0.012434     0.228775     2.016355
H      1.339736     2.570876    -0.441933
H      2.066425     1.155094     0.424913
H      1.644404     1.027838    -1.296959
