12

C     -0.755969    -0.733430     0.691691
C      0.972533     1.802098    -0.006849
C      1.776505     1.018618     0.807883
O     -0.491487     0.439521     1.226611
O      0.323981    -1.645518     0.704771
O      1.314901     0.538416     1.901776
H      0.885255    -1.390538     1.451451
H     -1.622836    -1.121892     1.251429
H     -1.065452    -0.675105    -0.371847
H      2.787402     0.769369     0.455468
H      1.151833     1.875777    -1.074274
H      0.274036     2.479784     0.433490
