12

C     -0.567905    -0.762961     0.673374
C      1.749510     1.064335     0.139796
C      0.721428     1.602387     0.959861
O      0.557665    -1.235255     0.172070
O      1.689682    -0.633935     0.480494
O     -0.189179     0.908098     1.454726
H      1.006330    -0.634063     1.401570
H     -1.019772    -1.408896     1.391005
H     -1.237282    -0.278606    -0.028962
H      0.782701     2.615950     1.355818
H      1.573721     1.023218    -0.928627
H      2.774198     1.337426     0.418476
