12

C     -0.709522     0.034306     0.236140
C      1.631992    -0.322884     0.488416
C      0.917846     0.867664     0.906982
O     -0.381261    -1.278847     0.270970
O      0.950586    -1.442000     0.291049
O      0.656263     0.986003     2.259415
H      1.550639     0.996665     2.697165
H     -1.216486     0.393970     1.146253
H     -1.301873     0.313884    -0.623936
H      1.101933     1.835959     0.454475
H      0.581328     0.273890    -0.581721
H      2.636857    -0.576910     0.799090
