12

C      0.379487     1.770271    -1.012557
C      0.032433    -0.127245     0.273510
C     -0.234076    -0.870958     1.544587
O     -0.373324     1.025139    -0.057337
O      0.235568     0.101525     2.492655
O     -1.147176    -1.557179     2.033192
H      1.188788     0.163038     2.574228
H      0.275237     1.328495    -2.001915
H     -0.046912     2.779245    -0.984614
H      1.437154     1.781857    -0.682973
H      0.773954    -1.437075     1.273634
H      0.562867    -0.704513    -0.490810
