12

C      1.134836     0.318350     1.425967
C     -0.093548    -0.173318     0.658563
C     -0.617905     1.688763     1.855650
O      0.691704     1.458544     2.159283
O     -1.356838     2.516149     2.445977
O     -1.143100     0.687677     1.071913
H     -0.941845     2.814343     1.130230
H      1.506045    -0.400242     2.161708
H      1.944616     0.619793     0.758242
H     -0.177692     2.789143     0.487750
H     -0.408119    -1.183855     0.933861
H      0.035944    -0.107049    -0.426346
