12

C      1.787285     1.001127     0.014737
C      0.711734    -0.324951    -0.517045
C     -0.284464     0.704870     1.675822
O      1.121224     2.144911     0.028879
O     -0.554016     1.611021     0.887681
O      0.067816     0.381125     2.741018
H      1.485449    -1.079219    -0.380195
H      2.554203     0.872910    -0.742244
H      2.134447     0.650661     0.999884
H     -0.370723    -0.094968     0.724258
H     -0.147587    -0.949891    -0.624400
H      0.372332     0.289305    -1.352396
