12

C     -0.846098     0.627373     0.514802
C      0.033299     1.268168    -0.503679
C      1.458833     1.315374    -0.098466
O     -0.671775    -0.851011    -0.087740
O      2.210090     0.382767    -0.794114
O      1.897453     2.042270     0.798735
H      3.022925     0.194346    -0.330235
H     -0.477670     0.560506     1.547887
H     -1.913064     0.853009     0.433234
H     -1.451326    -1.350485     0.004340
H     -0.127347    -0.107837    -0.962469
H     -0.326424     2.087421    -1.103996
