12

C     -0.592453     0.133098     0.105947
C      0.826204    -0.212914     0.067995
C      1.530527     0.383920     1.240221
O     -0.955193    -0.406871     1.350983
O      1.714666     1.744746     0.658156
O      0.725488     0.314840     2.283484
H      2.338234     1.737380    -0.071908
H     -1.139488    -0.404925    -0.676411
H     -0.813237     1.210430     0.057494
H      2.543422    -0.047938     1.366148
H     -0.344579    -1.148365     1.193635
H      1.334308    -0.484000    -0.868645
