12

C     -0.339576     0.314932    -0.068905
C      0.260580     1.424162     0.452456
C     -0.513210     1.696737     1.676705
O      0.863271     0.360655     2.183974
O      1.615724     1.676423     0.543791
O     -1.499799     1.380204     2.216952
H      2.055131     1.211553     1.171149
H     -0.011693    -0.096244    -1.021452
H     -1.212486    -0.108150     0.420126
H     -1.094292     3.198048     1.323627
H      0.876444     0.682737     3.087674
H     -0.748293     3.001442     0.564703
