12

C     -0.332879    -0.422096     1.712868
C      1.813625     1.902134    -0.144214
C      0.818413     1.007630    -0.027529
O     -1.046589    -0.148352     0.589297
O     -0.523216    -1.829766     0.697111
O      0.219486     0.201234    -0.700281
H     -0.021322    -1.657113    -0.116258
H      0.619381    -0.806404     2.059871
H     -1.022116    -0.414753     2.546092
H      0.533094     0.990149     1.215155
H      1.988036     2.646662     0.618540
H      2.505084     1.887778    -0.979153
