12

C     -2.848973     0.318747    -0.208422
C     -0.454560     0.249392     1.532902
C     -0.754834     1.348586     2.461425
O     -2.371562    -0.648864     0.525838
O     -1.264785    -0.558001     2.004061
O     -1.429084     2.153338     2.148000
H     -1.540223     1.207777    -0.207756
H     -3.503024     1.104351     0.160091
H     -3.037994     0.130204    -1.256845
H     -0.290534     1.394882     3.445194
H     -0.983371     1.327062     0.284690
H      0.229544    -0.285072     0.972625
