12

C     -0.179855    -0.403172    -0.902689
C      1.289304     0.741503     0.496389
C      0.385063     0.770315     2.038074
O      0.464005     0.829133    -0.488541
O      1.749015     0.405617     1.517357
O     -0.076970    -0.186368     2.491656
H      1.243471    -0.617023     1.154086
H     -0.780966    -0.093961    -1.751981
H     -0.772889    -0.812965    -0.067416
H      0.011307     1.727236     2.341519
H      0.544131    -1.142115    -1.243038
H      2.258384     1.176999     0.354784
