12

C      0.530045     1.049854     0.656466
C      0.562732     0.199283     1.819928
C     -0.645702     0.761963     2.540780
O     -0.665178     1.916183     1.624089
O      1.758717     1.312635     0.099893
O     -0.932509     0.680205     3.722923
H      2.275301     0.543514     0.058314
H     -0.320922     2.715495     1.987024
H     -0.128472     0.991892    -0.185301
H     -1.463165     0.168935     1.521940
H     -0.647477    -0.450113     1.296150
H      1.437530    -0.164846     2.355696
