12

C     -0.467633     0.310061     0.273604
C      1.236343     0.145816    -0.767618
C     -0.669300     0.457105     2.183092
O      0.676389     0.384358     0.897287
O      0.098492     0.336708     3.205388
O     -1.832303     0.650275     2.273805
H      1.064862     0.349099     3.081996
H     -0.879439    -0.676120     0.006236
H     -0.934591     1.220682    -0.129242
H      2.020703     0.878098    -0.623395
H      0.752133     0.346530    -1.710524
H      1.566843    -0.882113    -0.663730
