12

C      0.972744    -0.268170     1.007098
C     -0.293092     0.177558     0.466555
C      0.640910     1.399866     0.952940
O      1.730934    -1.356145    -0.143034
O      1.140187    -0.790159     2.200806
O      0.602630     1.914411     2.061031
H      1.082710     0.033367     2.756184
H      1.336558    -2.188200     0.066918
H      2.205396    -0.589479     0.313808
H      1.016005     1.899900     0.039035
H     -1.183940     0.066839     1.067501
H     -0.474342     0.108313    -0.606843
