12

C      1.762179     1.682149    -2.164034
C      1.354808     0.900159    -0.969075
C      0.483176    -0.199177    -1.060142
O      1.282116     3.026695    -1.928051
O     -0.031524     3.044464    -2.376121
O      0.626987    -0.780457    -0.117957
H     -0.579098     2.825019    -1.663502
H      1.372014     1.245175    -3.101084
H      2.850480     1.734897    -2.259834
H     -0.051024    -0.618645    -1.909151
H      1.693151    -0.806121    -0.497301
H      1.625734     1.285340     0.010456
