12

C     -0.945929     0.324444     0.447540
C     -0.005575     1.207079    -0.396804
C      1.672404     1.009105    -0.313992
O     -0.850313    -1.059179     0.302486
O      1.543784    -0.181823    -0.700644
O      2.325619     2.013030    -0.564903
H      2.062824     0.349007     0.563879
H     -0.753283     0.619175     1.509192
H     -1.975641     0.611145     0.173572
H      0.051234    -1.237427    -0.072607
H     -0.241894     1.115093    -1.464587
H     -0.074330     2.252151    -0.064731
