12

C      0.498630     1.147779     0.606661
C      0.059019     0.594859     1.946127
C     -1.331906     1.037924     2.277602
O      0.401991     2.437625     0.355900
O      1.550585     0.410049     0.111292
O     -1.969999     0.603626     3.191870
H      1.681436     0.447033    -0.776968
H     -0.377882     1.433118    -0.402847
H     -0.850889     0.697560    -0.322920
H     -1.757760     1.820786     1.614388
H      0.125293    -0.499267     1.997707
H      0.759080     1.028309     2.681787
