12

C     -0.429815     1.284853     2.607323
C     -0.179137     1.009151     1.210341
C      1.193366     1.248530     0.661921
O     -1.660215     0.950968     3.074420
O     -0.996653     0.254331     0.524842
O      1.451394     1.156336    -0.532060
H     -0.626682     0.183637    -0.391317
H     -0.678394     2.496793     1.878703
H      0.387403     1.398574     3.298193
H      1.972149     1.463463     1.418511
H     -1.641981     0.359767     3.776155
H     -0.952436     2.367797     1.021767
