12

C      0.157795     1.560163    -0.096230
C     -0.051617    -0.710704    -0.294253
C      0.168281    -0.534454     1.178166
O     -0.195388     0.594026    -0.915119
O      1.049511     0.705181     1.354301
O     -0.378284    -0.979278     2.132099
H      1.055593     1.126426     2.200407
H      1.555873     0.744242     0.500922
H      0.490545     2.437360    -0.637828
H     -0.565046     1.810135     0.718976
H      0.779540    -1.234142    -0.748309
H     -0.982805    -1.266356    -0.431433
