12

C     -1.214729    -0.626535     0.815501
C      1.278135     0.264349    -0.461825
C      0.492510     0.088712     0.677836
O     -2.383385    -0.063206     1.096215
O      1.937563    -0.140248     1.237557
O     -0.079170     0.938678     1.442824
H      2.071337     0.680213     1.720293
H     -1.214231    -0.968892    -0.225326
H     -0.900383    -1.365602     1.558240
H     -2.268275     0.612000     1.745201
H      1.691053    -0.574353    -1.017417
H      1.456474     1.260683    -0.867098
