12

C     -0.947230     0.359941     0.267455
C      1.546116    -0.756708     0.545031
C      1.328356     0.463296     1.324950
O     -0.221825    -0.012104    -0.812670
O      0.598403    -1.291744    -0.103104
O     -0.093481     0.307310     1.630738
H      1.549235     1.386300     0.776107
H     -1.746107    -0.357666     0.493229
H     -1.265723     1.405951     0.299184
H      1.823251     0.468425     2.312210
H      0.329108    -0.739969     1.727942
H      2.583700    -0.910134     0.175526
