12

C      0.824963     0.642595    -0.899924
C     -0.113078    -0.258370    -0.399154
C     -0.592777     0.214405     0.848067
O     -0.654197    -0.607667     1.918662
O      0.546920    -0.586107     2.573863
O      0.822558     1.378133     0.908274
H      0.241076    -0.570684     3.478987
H      0.557713     1.646667    -1.226868
H      1.703143     0.245252    -1.417468
H     -1.382605     0.961608     0.921813
H      1.418966     0.717529     1.331591
H     -0.310281    -1.205361    -0.867844
