12

C     -0.641832     0.572333     0.646145
C      0.308562     0.591758    -0.458045
C      1.684147     1.011214    -0.180846
O     -1.684326    -0.701914     0.267751
O      2.209181     1.822628    -1.115103
O      2.281442     0.612481     0.827632
H      3.107503     2.045071    -0.823730
H     -0.223159     0.299536     1.608230
H     -1.329952     1.412877     0.778355
H     -2.171422    -0.522802    -0.581850
H     -0.716131    -0.799550    -0.065480
H     -0.015111     0.678368    -1.484759
