12

C     -0.277249    -0.476754    -0.534097
C      1.337893     0.566866     0.613193
C      0.045062     0.903972     1.377169
O      0.730907     0.337667    -0.711710
O      1.837930    -0.618893     1.126327
O     -0.805611     0.004713     1.490444
H      2.728566    -0.538548     1.294145
H     -0.362986     1.046864    -0.219941
H     -1.278502    -0.322258    -0.813216
H      0.168394     1.659809     2.164659
H     -0.066073    -1.538208    -0.350379
H      2.075867     1.369969     0.503605
