12

C      1.397733    -0.865762     0.824043
C      0.756924     0.732525     0.153261
C     -0.476942     1.083927     0.777871
O      0.541911    -1.406203     1.620574
O      2.582185    -0.414011     1.412041
O     -0.610309     0.824097     1.887801
H      2.770503    -0.993645     2.180110
H     -0.429054    -0.436671     1.678786
H      1.509505    -1.345246    -0.165496
H     -1.386992     1.376783     0.313790
H      0.531851     0.453492    -0.904668
H      1.589486     1.398713     0.403888
