12

C     -0.935161     0.621965     1.012459
C      1.813970    -0.214500     0.932428
C      0.437566    -0.387567     1.077814
O     -1.639282     0.338552    -0.132422
O      0.802786    -0.276040    -0.518373
O     -0.297189    -1.095457     1.761503
H      0.037427    -0.169144    -0.958729
H     -1.582865     0.589429     1.893968
H     -0.447288     1.601165     0.900454
H     -2.031909    -0.558744     0.005322
H      2.279433     0.772104     0.866708
H      2.429310    -1.115863     0.880969
