12

C     -0.783269     0.692454     1.207589
C      1.468944    -0.279190     0.429300
C      0.223987    -0.198961     1.706439
O     -1.344918     0.104977    -0.427630
O      1.043939     0.151348    -0.695027
O      0.382401    -0.960658     2.611289
H     -0.330603     0.116656    -0.785361
H     -1.763240     0.683989     1.696086
H     -0.471442     1.640167     0.807435
H     -1.519681    -0.847308    -0.330295
H      2.216767     0.342805     0.957274
H      1.743913    -1.340378     0.545001
