12

C      0.026761     0.023216     1.426322
C     -0.198369     1.079341     0.413083
C      0.643950     1.141355    -0.717775
O      1.430857    -0.226496     1.655039
O      1.816660    -1.102780     0.678782
O      1.684973     1.801406    -0.433009
H      2.741331    -0.907656     0.477251
H     -0.422243    -0.931087     1.089438
H     -0.429431     0.321596     2.376070
H      0.452215     0.812329    -1.722099
H      1.350344     1.747087     0.720913
H     -1.245849     1.294989     0.263785
