12

C      0.805522    -0.623778     0.319301
C      0.202996     1.764580     0.740579
C     -0.188492     0.512473     0.477399
O      1.895610    -0.359454     1.179246
O      2.784638    -1.303382     0.754602
O     -1.476525     0.125390     0.617317
H      2.959994    -1.934837     1.346037
H      1.155414    -0.702253    -0.718773
H      0.289448    -1.561705     0.579064
H     -1.325751     1.046499     0.096705
H      0.608277     1.966902     1.712689
H      0.351370     2.598566     0.212034
