12

C      1.241048    -0.633932     0.722737
C      0.142251     0.180391     0.809958
C     -0.890386     0.519872    -0.104216
O      1.816509    -1.124331     1.833289
O      1.988057    -0.359208     2.824556
O     -0.014472     1.739476    -0.924553
H      1.812459    -0.972551     3.446499
H     -1.743873     1.127975     0.182761
H      1.742452    -1.004354    -0.174081
H     -1.180965    -0.100319    -0.957268
H      0.664066     1.991512    -0.826696
H      0.194253     1.517871     0.240813
