12

C     -1.124849     0.342513     0.148709
C      1.236038    -0.259813     0.529692
C      0.645668     0.639031     1.507799
O     -0.288392    -0.781988    -0.084090
O      1.112020     1.914454     1.552400
O     -0.719983     0.635746     1.500832
H      1.804931     1.878759     2.203094
H     -2.165863     0.033501     0.162243
H     -0.911064     1.196642    -0.519925
H     -0.245373    -0.806251     1.269529
H      1.714402    -1.163535     0.886927
H      1.670566     0.147841    -0.390811
