12

C     -1.226489     0.329257     0.374601
C      1.901379     1.163425     1.768569
C      0.477341     0.762423     1.585577
O     -1.741021    -0.079495     1.471441
O     -0.247423     0.310103     2.523431
O      0.111155     0.397018     0.302547
H      1.921888     2.096696     2.345906
H     -1.121611     2.171121     0.842809
H     -1.679183     0.194941    -0.604539
H     -0.652811     2.362169     1.302198
H      2.394937     1.325664     0.809549
H      2.458137     0.408478     2.332512
