12

C      1.307998    -0.303571     0.164898
C      1.005641     0.458116     1.389011
C     -0.358743     0.511763     1.726924
O      0.097262    -1.588948     0.310399
O      1.996469     0.464874     2.353717
O     -1.159057     0.974729     2.448354
H      1.592994     0.571446     3.222245
H      0.900185    -0.038654    -0.788241
H      2.291419    -0.770995     0.113284
H     -0.692567    -0.876824     0.709034
H      0.323733    -2.318018     0.697524
H      1.489965     1.143483     0.512451
