12

C      0.573162    -0.056535    -1.056540
C      0.698062     1.258455    -0.304372
C     -0.525667    -0.394316     0.650378
O      1.040402    -1.054065    -0.326235
O     -0.839146    -1.059373     1.725897
O      0.007573     0.873931     0.887636
H     -0.100979    -0.776229     2.380119
H     -0.815241     0.014080    -0.841085
H      0.603897    -0.086333    -2.139133
H     -0.937448    -1.215051     0.165346
H      1.744980     1.478945    -0.076925
H      0.208705     2.122391    -0.773788
