12

C      0.957509    -0.916024    -0.072144
C      0.884558     0.336439     0.746079
C     -0.125185     0.702132     1.554486
O      2.147289    -1.613978     0.212664
O      0.577951    -0.550279     2.547187
O     -0.314543     1.677010     2.355210
H      0.901425     0.007845     3.240542
H      0.062522    -1.533188     0.076622
H      0.979019    -0.620894    -1.131222
H     -1.159647     1.331075     1.470136
H      2.175908    -1.637993     1.196696
H      1.708193     1.045554     0.663544
