12

C      0.095148    -0.101912     1.131178
C     -0.391399     0.973020     0.322007
C      0.427646     1.673138    -0.508330
O      0.898045     0.200545     2.237669
O      1.583531    -1.388986     1.826306
O      1.338144     1.117922    -1.298268
H      2.528200    -1.426834     2.071472
H      1.154646    -0.840722     0.781178
H     -0.665104    -0.867582     1.363093
H      0.244511     2.741294    -0.643823
H      2.065253     1.716303    -1.463383
H     -1.427320     1.257114     0.408599
