12

C     -0.704549     0.555032     0.138312
C      1.359535    -0.954701     0.625971
C      0.819330     0.642895     1.454074
O     -0.346517    -0.318539    -0.813648
O      0.390434    -1.558153    -0.005228
O      0.260565     1.434862     0.451714
H      1.895618     0.874896     1.581975
H     -0.720522    -0.076537     1.179673
H     -1.710736     1.026052     0.104096
H      0.350043     0.657586     2.446615
H      1.789123    -1.426361     1.538821
H      2.101377    -0.534133    -0.065875
