12

C      0.608040    -0.076850     1.740091
C      1.217200     1.654125    -0.208529
C      0.648772     0.471343     0.353707
O      0.998118    -1.457009     1.710259
O      0.094773    -2.205703     1.151479
O      0.069311    -0.173076    -0.608292
H     -0.106079    -1.887586     0.236972
H     -0.429562    -0.005907     2.112360
H      1.292637     0.461406     2.405331
H      0.177504     1.092028    -1.027916
H      1.083301     2.613408     0.307260
H      2.161485     1.554621    -0.763024
