12

C      0.948730    -0.083159     0.518178
C     -0.110929     0.999490     0.293880
C     -0.673319     1.175298     1.661409
O      0.874115    -0.439122     1.850132
O     -1.797841     1.748552     1.967026
O     -0.108770     0.301147     2.506932
H     -1.295411     2.839067     2.079437
H      0.758226    -0.981188    -0.086852
H      1.972876     0.273429     0.351519
H     -0.303556     2.914580     1.732938
H     -0.925100     0.628656    -0.354533
H      0.291580     1.903554    -0.162366
