12

C      0.153697     0.124170    -1.390319
C      1.003534     0.426884    -0.376649
C      0.591756     1.069829     0.845810
O     -0.174422    -0.498197     1.756110
O     -0.569709    -1.120859     2.822725
O      1.524494     1.445503     1.718405
H     -1.495926    -1.026814     3.056259
H     -0.885203    -0.112785    -1.188393
H      0.469590     0.124009    -2.427012
H     -0.373571     1.640765     0.802668
H      0.746686     0.273093     1.997528
H      2.071373     0.232301    -0.447232
