12

C      0.781579     0.231068    -1.143958
C     -0.212946     0.197074    -0.197138
C     -0.088037     0.604732     1.370573
O     -1.039409     0.438259     2.172134
O      0.465415    -0.874650     2.206014
O      1.108392     1.251173     1.597527
H     -0.285257    -1.429077     2.353652
H      1.588378     0.962803    -1.059703
H      0.746724    -0.383103    -2.037041
H     -0.576062     1.360729     0.359912
H      1.689519     0.594225     1.888926
H     -1.115998    -0.375334    -0.340900
