12

C     -0.231331    -0.928898     0.921417
C     -0.172137     1.411786     1.394910
C      0.667469     2.516326     2.078593
O      0.236481     0.199974     1.605559
O     -1.409077     1.748020     1.238987
O      1.803978     2.798787     1.799735
H     -0.721985     1.761964    -0.128507
H     -0.734238    -1.572353     1.658815
H     -0.913429    -0.636699     0.105714
H      0.104685     3.042436     2.877271
H      0.648505    -1.429066     0.497050
H      0.200278     1.612520    -0.198545
