12

C      0.805385    -0.598890     0.060479
C      0.634016     0.158861     1.292813
C     -0.483292     1.102182     1.502512
O      2.239794    -1.152790     0.200411
O      1.109249    -0.486000     2.389473
O     -1.252782     1.014584     2.423060
H      0.419880    -0.380450     3.104853
H      0.198777    -1.507411    -0.076347
H      0.910257    -0.000767    -0.846706
H     -0.582130     1.923918     0.750410
H      2.694696    -1.407717     0.740256
H      2.101151    -0.438020     1.318689
