12

C     -0.000214     0.150483    -0.715874
C     -0.012860     0.246533     0.722303
C     -0.349832     1.584960     1.299913
O      1.790775    -0.158172     0.469879
O      1.882624    -0.696302     1.720414
O      0.233872     2.618525     1.055939
H      2.616050    -1.295532     1.633114
H      1.227049    -0.550920    -0.473752
H     -0.774671    -0.425205    -1.201295
H     -1.259212     1.616554     1.948521
H      0.241116     1.080711    -1.238247
H     -0.387897    -0.600236     1.295485
