12

C     -0.618062    -0.083042    -0.045695
C      0.788934    -0.143741    -0.201876
C      1.597767     0.306771     0.971859
O     -0.569618     0.266918     1.681834
O      2.344649     1.411685     0.576682
O      0.671130     0.652802     1.974550
H      2.068973     2.156116     1.121501
H     -1.168511    -1.044899    -0.025406
H     -1.198985     0.736092    -0.496220
H      2.295018    -0.462841     1.355880
H     -0.256353    -0.740337     0.974116
H      1.213155    -0.236224    -1.180224
