12

C     -0.740745     0.165154     0.213862
C      0.639458    -0.166465    -0.261808
C      1.653042     0.285227     0.694987
O     -0.533279     0.551245     1.575055
O      2.194321     1.553865     0.594016
O      0.676538     0.038984     1.860166
H      2.175377     1.946553     1.483332
H     -1.447682    -0.678517     0.157877
H     -1.186739     1.003274    -0.338030
H      2.427794    -0.452277     0.918666
H      0.438124    -1.011398     1.092133
H      0.871690    -0.416248    -1.283158
