12

C     -0.104345     1.741762     2.592211
C     -0.172856     0.891030     1.447583
C      0.881720     1.028408     0.393224
O     -1.027168     1.656008     3.580541
O     -0.986887    -0.124717     1.411570
O      0.979590     0.244953    -0.526665
H     -0.837955    -0.512232     0.488593
H     -0.626327     2.411655     1.502952
H      0.802022     2.193699     2.929546
H      1.571253     1.871597     0.529851
H     -1.509476     0.792592     3.474683
H     -1.130969     1.979445     0.724712
