12

C     -0.474851    -1.189641     0.715005
C      1.953907     0.933329     0.355069
C      1.173537     1.895001     1.060194
O      0.593189    -0.595772    -0.032610
O      1.695871    -0.372488     0.699212
O     -0.051108     1.885538     0.730929
H     -0.610760    -0.648092     1.651400
H     -0.255029    -2.246370     0.894064
H     -1.378759    -1.092954     0.095775
H      1.552781     2.691698     1.706425
H      0.676014     1.273556    -0.378264
H      2.966309     1.063895    -0.007600
