12

C      0.719755     0.552848     0.156679
C      0.718425     1.320437     2.247049
C     -0.701471     0.842372     1.881818
O      1.429287     1.330832     0.969969
O     -1.533966     1.742211     1.507058
O     -0.129176    -0.206082     0.665278
H     -1.064298     1.892873     0.006811
H     -0.431192     1.999867    -0.406790
H      1.174154     0.343654    -0.811523
H     -1.182912     0.002868     2.368617
H      1.239519     0.657582     2.942070
H      0.713876     2.353638     2.589662
