12

C     -0.685377     0.088428     0.451444
C      1.573927    -0.385400     0.244137
C      0.589209     0.747175     0.503131
O     -0.531036    -1.179554    -0.035550
O      0.814647    -1.420749    -0.284074
O      0.470688     0.944615     2.347178
H      1.062319     1.367218     2.428239
H     -0.412445     0.473792     1.765812
H     -1.599855     0.572520     0.105399
H      0.729145     1.762128     0.141987
H      2.365463    -0.104531    -0.475307
H      2.041614    -0.783942     1.152002
