12

C     -0.884743    -0.014622     0.431185
C      1.556820    -0.305528     0.340955
C      0.875634     0.879786     0.882741
O     -0.633372    -1.292165     0.635253
O      0.902817    -1.497238     0.287213
O      0.517102     0.949204     2.172364
H      1.392839     0.793366     2.618934
H     -1.539175     0.477341     1.153726
H     -1.030683     0.281738    -0.604862
H      1.358600     1.836595     0.579709
H      1.254296     0.343684    -0.562253
H      2.648164    -0.370461     0.409336
