12

C      1.580756     1.195617    -2.283171
C      0.181248     0.483798    -0.569704
C      1.382761    -0.022138    -1.082088
O      0.734217     2.263306    -2.470222
O      0.765197     3.129402    -1.453910
O      2.500814    -0.319401    -0.532103
H      0.861127     3.982804    -1.862124
H      1.473292     0.561543    -3.192476
H      2.607623     1.510905    -2.035555
H      0.914818    -0.759075    -1.828672
H      0.074478     0.681781     0.487444
H     -0.687332     0.631056    -1.213119
