12

C     -0.623223    -0.396637     0.682122
C      1.321214     1.244333    -0.253392
C      0.131973     1.220744     0.367462
O      0.523307    -1.219969     0.684315
O      1.218612    -0.941720     1.830625
O     -0.985355     1.318508     0.848710
H      1.098388    -1.715504     2.382850
H     -1.206289    -0.562859     1.611241
H     -1.180943    -0.586801    -0.225552
H      0.415923     2.362931    -0.050404
H      1.531029     0.664284    -1.126250
H      2.146563     1.817888     0.060073
